142
AGUFEN | source=rxembed | metal=Y#141 | donors=[132, 133, 134, 135, 137, 139] (NNNPPP) | vertices=3 | polytope=trigonal_planar | M-donor MAE vs crystal = 0.001 A
C     -4.19577173     0.41591177     1.14545174
C     -5.10484860     0.39452821     0.07578210
H     -4.92473091    -0.19120475    -0.80392552
C     -6.31575802     1.09223170     0.15748304
H     -7.03072447     1.03110355    -0.65695803
C     -6.61987846     1.83734833     1.29701531
H     -7.56388890     2.37021709     1.36764028
C     -5.70728003     1.89386633     2.35429390
H     -5.94438145     2.46243653     3.24350243
C     -4.51484090     1.16773984     2.28865546
H     -3.85433760     1.18356844     3.14251158
C     -2.30495317    -1.34937618     2.70484263
C     -1.81849317    -0.62049832     3.79756279
H     -1.60399824     0.43984540     3.70543569
C     -1.59692675    -1.25934502     5.02387986
H     -1.21913208    -0.69717578     5.86570699
C     -1.86923045    -2.62444522     5.16243340
H     -1.69423427    -3.11809951     6.11132911
C     -2.34622403    -3.35438958     4.06794409
H     -2.54143286    -4.41455666     4.16643151
C     -2.55205588    -2.72177507     2.83786787
H     -2.92358163    -3.30112457     2.00407513
C     -3.70605322    -2.13499072    -1.98024429
C     -3.71282906    -3.27457009    -1.15159880
H     -2.98269835    -3.40007773    -0.37177879
C     -4.68117951    -4.26751793    -1.33068052
H     -4.69662753    -5.13546426    -0.68170968
C     -5.63096957    -4.14672673    -2.34852380
H     -6.37456127    -4.92248312    -2.48328004
C     -5.60576204    -3.03616580    -3.19501908
H     -6.33465615    -2.95347487    -3.99030267
C     -4.64738858    -2.03707352    -3.01338572
H     -4.63289795    -1.19041294    -3.68460314
C     -1.13820123    -1.79379656    -2.67582342
C     -0.46997626    -2.84467102    -2.03419298
H     -0.65651936    -3.06345353    -0.99742381
C      0.41390513    -3.66284711    -2.74403016
H      0.90778321    -4.48463360    -2.24697694
C      0.64817472    -3.43017409    -4.09961422
H      1.33630656    -4.06198623    -4.64331656
C     -0.02500892    -2.39506612    -4.75226074
H      0.13853772    -2.22659949    -5.80742856
C     -0.93292576    -1.59947636    -4.04764553
H     -1.50202933    -0.85575980    -4.58173212
C     -1.32271003     3.78943571     0.47709548
C     -1.31466816     5.18593098     0.68186692
H     -0.45048666     5.71168892     1.04032335
C     -2.43916830     5.95347774     0.35738961
H     -2.43317714     7.02662463     0.53195099
C     -3.57932513     5.34448439    -0.17299502
H     -4.45196680     5.93999339    -0.41102281
C     -3.59938480     3.96427187    -0.37337728
H     -4.48718830     3.48948242    -0.76635946
C     -2.48113512     3.19473471    -0.04748089
H     -2.52071351     2.12717846    -0.20457633
C      1.58094314     3.66503245     1.17660046
C      1.57696630     4.68812229     2.14197253
H      0.68318763     4.89485568     2.71534127
C      2.74290944     5.38797812     2.45835880
H      2.71779986     6.17087578     3.20756587
C      3.94679562     5.04163128     1.84987435
H      4.85263164     5.57797427     2.10029139
C      3.99150125     3.95771403     0.97541944
H      4.94140000     3.64193710     0.55981795
C      2.83011111     3.23075223     0.69576992
H      2.92475567     2.30192270     0.15870598
C      0.92486530     4.35451128    -1.94842116
C     -0.33898601     4.89296892    -2.25588094
H     -1.20864628     4.26493349    -2.35494895
C     -0.50115488     6.27095883    -2.41859994
H     -1.47969231     6.67626082    -2.64500100
C      0.59594387     7.12700259    -2.30633325
H      0.47025752     8.19330292    -2.43795765
C      1.85714406     6.60553307    -2.02437568
H      2.71510009     7.26593919    -1.96520853
C      2.02208842     5.22854253    -1.85888545
H      3.01808743     4.83253270    -1.69975081
C      0.31868800     2.09812246    -3.43577965
C      0.98075126     2.05605295    -4.66944817
H      2.05534230     2.17259095    -4.71477518
C      0.26153994     1.88753356    -5.85698125
H      0.78392369     1.85429153    -6.80439870
C     -1.12867862     1.76933322    -5.82262192
H     -1.68762573     1.64866269    -6.74121433
C     -1.80119552     1.80361505    -4.59712454
H     -2.87734294     1.70055681    -4.56548745
C     -1.08027071     1.94790741    -3.40835965
H     -1.62685558     1.99379576    -2.48120168
C      2.99106029     0.31498865     2.68308695
C      4.04674782     0.27865914     1.75338842
H      4.00223595    -0.33053349     0.87544677
C      5.20006868     1.03878867     1.96653997
H      6.01004690     1.00977371     1.24570619
C      5.30194678     1.86216045     3.09004162
H      6.19269637     2.45791380     3.23988200
C      4.23812776     1.95081428     3.98706463
H      4.29422366     2.63092388     4.82743812
C      3.09279317     1.18022180     3.78660316
H      2.29000244     1.24057220     4.50389644
C      2.22218549    -2.23855030     3.70807261
C      3.54714447    -2.26576007     4.19256203
H      4.24952217    -1.47685918     3.97534994
C      3.99351196    -3.33846277     4.97251963
H      5.01185129    -3.34597258     5.34482922
C      3.13553270    -4.40039626     5.26622046
H      3.48830075    -5.22883942     5.86843200
C      1.82233107    -4.38324615     4.79084958
H      1.15318714    -5.20655927     5.01874258
C      1.37130280    -3.31021172     4.02064833
H      0.35739730    -3.31285507     3.66382820
C      1.91689325    -4.28656506     0.50573508
C      2.49775552    -5.44076564    -0.04680955
H      3.54235427    -5.44349192    -0.32772954
C      1.74235607    -6.60428181    -0.21499132
H      2.19697459    -7.49146542    -0.64124596
C      0.40105826    -6.62860354     0.17779042
H     -0.18132580    -7.52689557     0.04681202
C     -0.18135041    -5.49381491     0.74179959
H     -1.21919348    -5.51526590     1.04827510
C      0.57285037    -4.33286563     0.91535186
H      0.09168806    -3.46867876     1.35317821
C      3.40538873    -2.41947878    -0.93328041
C      4.55268211    -3.00821730    -1.48655203
H      5.16514773    -3.67653484    -0.89086844
C      4.93885740    -2.71776696    -2.79645076
H      5.82995480    -3.17588969    -3.21193352
C      4.17564764    -1.84003302    -3.57243618
H      4.47285262    -1.62726366    -4.59169508
C      3.04364903    -1.23196765    -3.03181318
H      2.46475440    -0.54290223    -3.63349782
C      2.65621497    -1.51650988    -1.71809198
H      1.77640954    -1.02544963    -1.34037570
N     -1.93737002    -1.13203763    -0.13266760
N      0.15626139     1.85370610    -0.67552531
N      1.66678072    -1.57814653     0.99513498
P     -2.65015824    -0.52462957     1.15158146
P     -2.43658211    -0.78821958    -1.81777043
P      0.04184965     2.63161807     0.97969621
P      1.30388699     2.53015481    -1.92542314
P      1.53637715    -0.84643665     2.66346583
P      2.98672156    -2.80894808     0.83719726
Y      0.00831567    -0.09935622     0.45482469
