142
AGUFEN | source=oin | metal=Y#0 | donors=[45, 92, 139] (NNN) | vertices=3 | polytope=trigonal_planar | M-donor MAE vs crystal = 0.029 A
C      2.96728963     0.67773625    -6.17661201
C      2.37269748    -0.59077717    -6.00667839
C      1.18744909    -0.74426375    -5.24827668
C      0.59281346     0.39212944    -4.67418475
P     -1.00621000     0.30510715    -3.73259035
C     -2.32187488    -0.25332669    -4.93161372
C     -3.45453338     0.53592909    -5.06757413
C     -4.51678570     0.15654369    -5.91161184
C     -4.45981012    -1.04745818    -6.59736571
C     -3.30409763    -1.82859467    -6.51463167
C     -2.22831863    -1.40881568    -5.71837014
N     -0.69050929    -0.97987824    -2.44953268
P     -1.30346322    -2.58263771    -3.04598532
C     -0.05460411    -3.79284567    -2.47950339
C      0.97401802    -3.47497348    -1.56754302
C      1.93319188    -4.44121303    -1.23963872
C      1.86581908    -5.71712929    -1.80179093
C      0.84471142    -6.03468607    -2.68918934
C     -0.10890078    -5.06565785    -3.02818709
C     -2.82939077    -2.84320514    -2.03942294
C     -3.12376281    -4.11176019    -1.53265631
C     -4.39716851    -4.42407383    -1.05649139
C     -5.41285391    -3.47517016    -1.10486406
C     -5.12622281    -2.19882531    -1.59483092
C     -3.84979830    -1.88522354    -2.05314358
Y      0.26308638     0.05899683    -0.62766869
N      2.45638670     0.73581070    -0.43406845
P      3.55247185     1.19468927     0.93344263
C      3.37819574    -0.16970486     2.14821260
C      2.57422811    -1.28843606     1.94620623
C      2.57800298    -2.35987342     2.80384683
C      3.43714460    -2.33894973     3.88274483
C      4.24218299    -1.27209383     4.13233256
C      4.26030666    -0.16592280     3.27424562
C      2.72581346     2.68397649     1.64838883
C      3.23972893     3.25979176     2.81161905
C      2.75279760     4.46186893     3.29820766
C      1.75415076     5.14053388     2.59059695
C      1.25640819     4.58428929     1.41419709
C      1.72690281     3.36641074     0.95510089
P      3.13614146     1.40636401    -2.00399528
C      4.17811224     2.90046860    -1.51174105
C      3.72443103     4.13782138    -1.80687378
C      4.45664863     5.27517507    -1.45268069
C      5.68456220     5.14242534    -0.78116317
C      6.16971449     3.86966396    -0.49533615
C      5.43874481     2.74864839    -0.89431292
C      4.43846517     0.17411109    -2.44844213
C      4.28331966    -1.19482853    -2.18839742
C      5.26503248    -2.10418949    -2.59187435
C      6.41935352    -1.67349213    -3.28109290
C      6.56239660    -0.31699138    -3.55988666
C      5.56801840     0.59006031    -3.19064492
N     -1.08745712     0.31809687     1.21882427
P     -2.17791894     1.74833537     1.58179764
C     -1.94695596     2.48268246     3.27626374
C     -1.51397392     3.81992891     3.34181478
C     -1.41102270     4.49058259     4.56523170
C     -1.75978195     3.81622123     5.73811217
C     -2.22221859     2.49195633     5.68429728
C     -2.33953310     1.83539060     4.45495151
C     -3.95906304     1.42998043     1.19777251
C     -4.51666602     0.14733748     1.19171378
C     -5.87145199    -0.01889577     0.87694062
C     -6.65799062     1.09499353     0.55451659
C     -6.10305308     2.37401522     0.58496329
C     -4.76114286     2.54559636     0.91988696
P     -0.88597592    -0.82634935     2.61572197
C     -2.07710439    -2.19115438     2.72173151
C     -2.92911135    -2.28145087     3.85235001
C     -3.74315698    -3.39401747     4.03072077
C     -3.71377836    -4.44047446     3.08673721
C     -2.86807363    -4.39089335     1.93729246
C     -2.04208893    -3.30333757     1.67580181
C      0.09673565    -0.25882100     4.06900491
C      0.22337563    -1.11188816     5.16677623
C      1.02449272    -0.74485565     6.25024426
C      1.71225270     0.45894516     6.27063565
C      1.58895724     1.31024916     5.18797648
C      0.79734011     0.96658267     4.07351803
C      1.17684740     1.65186625    -4.86899417
C      2.35987439     1.79168495    -5.59894300
H      3.88254669     0.77493895    -6.75833890
H      2.82992872    -1.47233865    -6.47127661
H      0.77001175    -1.74325574    -5.11194202
H     -3.52610743     1.46158955    -4.52107436
H     -5.39751345     0.80144869    -6.01393285
H     -5.29425346    -1.37821824    -7.21107829
H     -3.25450096    -2.76419747    -7.03667553
H     -1.34058633    -2.02209615    -5.72478739
H      1.04342103    -2.50065431    -1.13984482
H      2.73231527    -4.20380321    -0.56741278
H      2.61245884    -6.47657361    -1.54891206
H      0.78305213    -7.02910748    -3.12565893
H     -0.88950743    -5.33100996    -3.74008966
H     -2.37680586    -4.89074337    -1.53471782
H     -4.61533312    -5.42423311    -0.69784104
H     -6.41260620    -3.72639037    -0.76071240
H     -5.92372604    -1.46918126    -1.66866665
H     -3.67045330    -0.91682134    -2.47792981
H      1.92235724    -1.32020069     1.09187363
H      1.95545235    -3.23022366     2.61170937
H      3.47197618    -3.18775646     4.54480303
H      4.93147787    -1.30120419     4.97531711
H      4.94218643     0.63702212     3.44773267
H      4.03841394     2.77947185     3.34046258
H      3.15724162     4.89457136     4.20164658
H      1.39287912     6.07304057     2.94170420
H      0.51300489     5.11486017     0.84865057
H      1.32817825     2.97380331     0.02845376
H      2.78495808     4.24812482    -2.31295835
H      4.08689080     6.24728670    -1.70133190
H      6.24221682     6.02571080    -0.48772014
H      7.10423896     3.75221596     0.01613945
H      5.84471292     1.76472088    -0.67463822
H      3.40154735    -1.55222859    -1.66809736
H      5.12895852    -3.15254400    -2.39157634
H      7.18432518    -2.39150351    -3.57812801
H      7.44494549     0.02698949    -4.08820344
H      5.69187109     1.63275299    -3.46196200
H     -1.28842541     4.36455008     2.42257631
H     -1.08839080     5.52259573     4.60699039
H     -1.69232964     4.33224018     6.70279926
H     -2.51547343     1.98695698     6.61070982
H     -2.73170024     0.82929653     4.42147859
H     -3.91689681    -0.72862985     1.41181012
H     -6.31589400    -1.00246155     0.86232625
H     -7.70338638     0.96944162     0.28788110
H     -6.70888484     3.23399324     0.35114692
H     -4.33593023     3.53714937     0.94454668
H     -2.92890277    -1.50217611     4.59781629
H     -4.36849561    -3.47777717     4.89494518
H     -4.32687600    -5.32310561     3.25392831
H     -2.86638840    -5.24524669     1.25491258
H     -1.40257930    -3.27524915     0.82465263
H     -0.27794432    -2.06190995     5.17882075
H      1.13036040    -1.43504896     7.10171647
H      2.33253173     0.72020748     7.11537623
H      2.10761697     2.22452058     5.19757041
H      0.73359210     1.63771678     3.22478544
H      0.72257889     2.52048414    -4.43706372
H      2.80746049     2.75670766    -5.72237251
