142
AGUFEN | source=crystal | metal=Y#141 | rxembed donors=[132, 133, 134, 135, 137, 139] (NNNPPP) | vertices=3 sites=[[132, 135], [133, 137], [134, 139]] | polytope=trigonal_planar | MAE=0.000 (reference)
C      4.01820000     0.93180000    13.76420000
C      4.04100000     0.24760000    12.55080000
H      3.58580000     0.59860000    11.80560000
C      4.73150000    -0.94720000    12.43990000
H      4.74190000    -1.40620000    11.61880000
C      5.40600000    -1.46920000    13.52380000
H      5.86330000    -2.28650000    13.44780000
C      5.40250000    -0.78050000    14.71650000
H      5.86960000    -1.12610000    15.45550000
C      4.71420000     0.41690000    14.83720000
H      4.72220000     0.88110000    15.65460000
C      1.54490000     2.08770000    13.08590000
C      0.85330000     0.93410000    13.43160000
H      1.23460000     0.32470000    14.03700000
C     -0.38230000     0.67680000    12.89770000
H     -0.84720000    -0.10090000    13.14610000
C     -0.94740000     1.55960000    11.99450000
H     -1.79290000     1.37930000    11.62500000
C     -0.27000000     2.69880000    11.63520000
H     -0.64810000     3.29300000    11.01320000
C      0.95470000     2.96940000    12.18230000
H      1.40550000     3.75930000    11.94520000
C      2.82590000     2.63770000    18.13190000
C      4.02110000     2.07950000    18.54720000
H      4.44490000     1.43560000    18.00910000
C      4.60460000     2.45990000    19.75200000
H      5.43770000     2.10410000    20.00240000
C      3.96360000     3.35320000    20.57180000
H      4.33900000     3.58510000    21.40240000
C      2.77260000     3.90710000    20.17520000
H      2.33680000     4.52630000    20.73110000
C      2.20890000     3.55600000    18.95630000
H      1.39760000     3.94850000    18.68860000
C      0.42600000     2.69920000    16.62600000
C     -0.43510000     2.12600000    17.57740000
H     -0.10020000     1.48890000    18.18160000
C     -1.75750000     2.48310000    17.63550000
H     -2.31640000     2.09800000    18.28420000
C     -2.27500000     3.40210000    16.74670000
H     -3.18200000     3.64800000    16.79180000
C     -1.45150000     3.95740000    15.79210000
H     -1.80000000     4.57730000    15.17830000
C     -0.12140000     3.60870000    15.73440000
H      0.42720000     3.99600000    15.07570000
C      7.55290000     3.77320000    13.28650000
C      8.90840000     3.84110000    13.54430000
H      9.28930000     4.65420000    13.82350000
C      9.70800000     2.71980000    13.39860000
H     10.62650000     2.77290000    13.58540000
C      9.16120000     1.53460000    12.97980000
H      9.70700000     0.77550000    12.87720000
C      7.81480000     1.45550000    12.71290000
H      7.43960000     0.64010000    12.43170000
C      7.00880000     2.57000000    12.85350000
H      6.09250000     2.51440000    12.65550000
C      7.38170000     6.58900000    13.09520000
C      7.84790000     6.62280000    11.78510000
H      7.72950000     5.88230000    11.22060000
C      8.49850000     7.77610000    11.31910000
H      8.82280000     7.80320000    10.43640000
C      8.65600000     8.81130000    12.09710000
H      9.11520000     9.56090000    11.76450000
C      8.16890000     8.85110000    13.39650000
H      8.26190000     9.62010000    13.92820000
C      7.54160000     7.71490000    13.88510000
H      7.22000000     7.70840000    14.76780000
C      7.43840000     3.75120000    17.29370000
C      7.99260000     3.70730000    18.58350000
H      8.17730000     4.50800000    19.03960000
C      8.26700000     2.48730000    19.18720000
H      8.61430000     2.46610000    20.05990000
C      8.03640000     1.32600000    18.52440000
H      8.26050000     0.50440000    18.92470000
C      7.47110000     1.34890000    17.25170000
H      7.28010000     0.54360000    16.80620000
C      7.18920000     2.56940000    16.64280000
H      6.82460000     2.58280000    15.77570000
C      6.35190000     6.30150000    17.73980000
C      6.90590000     7.44650000    18.29800000
H      7.77780000     7.70590000    18.05630000
C      6.18920000     8.21020000    19.20590000
H      6.58390000     8.96920000    19.59390000
C      4.90510000     7.85880000    19.53440000
H      4.40890000     8.39310000    20.12970000
C      4.34220000     6.72490000    18.99860000
H      3.46380000     6.48260000    19.22640000
C      5.06450000     5.94320000    18.12630000
H      4.68040000     5.15550000    17.78540000
C      0.80470000     6.54320000    12.40070000
C      0.64890000     6.30720000    11.03090000
H      1.40990000     6.23500000    10.48360000
C     -0.60700000     6.18030000    10.47330000
H     -0.70010000     6.02520000     9.54960000
C     -1.71540000     6.28260000    11.26980000
H     -2.57100000     6.21470000    10.88800000
C     -1.58180000     6.48380000    12.62470000
H     -2.34680000     6.53480000    13.16660000
C     -0.31660000     6.61190000    13.19430000
H     -0.22870000     6.74500000    14.12110000
C      3.05750000     8.23050000    12.22400000
C      2.19270000     9.14310000    11.62210000
H      1.27150000     8.95760000    11.57770000
C      2.68240000    10.31990000    11.08920000
H      2.09170000    10.93330000    10.69090000
C      4.02450000    10.59930000    11.13840000
H      4.35660000    11.38940000    10.75050000
C      4.87830000     9.72270000    11.75430000
H      5.79350000     9.92590000    11.81590000
C      4.39680000     8.54130000    12.28600000
H      4.99300000     7.94120000    12.69650000
C      1.51180000     7.94670000    17.01640000
C      0.82350000     6.77200000    17.28180000
H      0.69490000     6.14910000    16.59070000
C      0.31990000     6.49950000    18.53460000
H     -0.14890000     5.69980000    18.68660000
C      0.50380000     7.39190000    19.56100000
H      0.15780000     7.21160000    20.41500000
C      1.19920000     8.55450000    19.32090000
H      1.34430000     9.15900000    20.02700000
C      1.68810000     8.84950000    18.06050000
H      2.14020000     9.66010000    17.90850000
C      3.37960000     9.46400000    15.54890000
C      4.62730000     9.02410000    15.92970000
H      4.77660000     8.10370000    16.05490000
C      5.66750000     9.91880000    16.12880000
H      6.51870000     9.60450000    16.37510000
C      5.44910000    11.27210000    15.96660000
H      6.14910000    11.88470000    16.10820000
C      4.22160000    11.71560000    15.59920000
H      4.06890000    12.63910000    15.50470000
C      3.18930000    10.82690000    15.36310000
H      2.35400000    11.14650000    15.07570000
N      2.91410000     3.06110000    15.39840000
N      6.08970000     5.19860000    15.28020000
N      2.57350000     6.90120000    14.68770000
P      3.14130000     2.54090000    13.82000000
P      2.13000000     2.04710000    16.53260000
P      6.40850000     5.14630000    13.64000000
P      7.30330000     5.39430000    16.47360000
P      2.51320000     6.67860000    13.02480000
P      1.92910000     8.37900000    15.28410000
Y      3.88620000     5.03310000    14.80630000
