109
GODNOD | source=crystal | metal=Ni#106 | rxembed donors=[0, 1, 92, 93, 104, 105] (CCNNSS) | vertices=2 sites=[[0, 92, 104], [1, 93, 105]] | polytope=linear | MAE=0.000 (reference)
C      5.92329672     2.56083392     2.31353183
C      2.59008790     4.96737303    -0.40633789
C      8.07480219     1.96507528     3.45230216
C      0.46315878     5.48346421    -1.62598393
C      8.35373398     3.33801583     4.07422738
H      7.72550196     3.46975652     4.95907963
H      8.10249862     4.11934513     3.35597992
C      0.24520145     4.08732317    -2.22022143
H      0.90814111     3.95111964    -3.07880175
H      0.49228478     3.33224461    -1.47312364
C      9.83057794     3.43008518     4.45477002
H     10.02700616     4.41402172     4.89469550
C     -1.21372591     3.94218926    -2.64985846
H     -1.36632686     2.94147815    -3.06890341
C     10.68912189     3.24997496     3.20387413
H     10.45179276     4.02916769     2.47727921
H     11.74628479     3.33905753     3.46306182
C     -2.12178507     4.13071455    -1.43571013
H     -3.16590597     4.00431307    -1.72992679
H     -1.88952708     3.37830734    -0.67983453
C     10.41645564     1.87587952     2.59424205
H     11.03298984     1.74500104     1.69853716
C     -1.90985831     5.52789613    -0.85505312
H     -2.56204947     5.66480723     0.01407984
C     10.75562835     0.78639137     3.61026444
H     11.81189899     0.84597853     3.88107165
H     10.57674332    -0.19895196     3.17450277
C     -2.24182466     6.57974080    -1.91230054
H     -2.10637078     7.58109968    -1.49792475
H     -3.28545733     6.48256535    -2.21886927
C      9.88977867     0.97078179     4.85539979
H     10.12298678     0.18679579     5.58420334
C     -1.32651087     6.38721827    -3.12026105
H     -1.55465300     7.14442429    -3.87840111
C      8.41406854     0.87356160     4.46919489
H      7.78596850     0.99076591     5.35531778
H      8.20495862    -0.10646593     4.03481465
C      0.13086592     6.53718578    -2.68417290
H      0.79393444     6.41456466    -3.54371157
H      0.29643964     7.53413974    -2.27008378
C      8.94246056     1.77732788     2.20391341
H      8.73102010     0.80163876     1.76091904
H      8.69878280     2.54529642     1.46976069
C     -0.45436869     5.67927308    -0.41520625
H     -0.28635067     6.67193354     0.00811749
H     -0.21622702     4.93846645     0.34807476
C     10.16755688     2.34079279     5.47186633
H     11.21885458     2.41213503     5.75860444
H      9.56493510     2.47279911     6.37321657
C     -1.54378860     4.99380110    -3.70796583
H     -2.58176020     4.88479540    -4.02929344
H     -0.90588173     4.85499319    -4.58366029
C      2.35878135    -0.13523797     2.10193988
H      2.93819230    -0.78568841     2.77183018
C      6.10939579     7.70870578    -0.15389069
H      5.51569919     8.33970754    -0.82994015
C      0.91345604    -0.60720821     2.02819893
H      0.86861331    -1.61371440     1.62166765
H      0.34634286     0.06707604     1.39203151
H      0.47132796    -0.60189924     3.02035012
C      5.45121428     7.66009419     1.21928291
H      4.41405369     7.34591750     1.11986260
H      5.48513829     8.63850803     1.69150974
H      5.97755184     6.93663100     1.83865483
C      3.01585877    -0.09239407     0.72823611
H      2.95993866    -1.06680217     0.24996199
H      4.05985317     0.19782153     0.82940114
H      2.50545873     0.64662149     0.11389190
C      7.54225968     8.21773535    -0.08102823
H      7.56044140     9.22773805     0.31915788
H      7.98659977     8.21765141    -1.07226462
H      8.12519491     7.56238191     0.56084167
C      3.76102877     4.03875969     4.56435588
H      4.81495361     3.71826842     4.57632692
C      4.80610366     3.50198432    -2.61803367
H      3.75461307     3.82659085    -2.66854835
C      3.31607809     4.34727466     5.98893593
H      3.42530048     3.45995083     6.60651563
H      2.27022871     4.64187779     5.98730875
H      3.91789493     5.15088110     6.40488418
C      4.92331995     2.29032873    -1.69595662
H      5.96838057     1.99977782    -1.61429958
H      4.33981971     1.45969067    -2.08528032
H      4.54744391     2.53789521    -0.67406313
C      3.60576225     5.25015240     3.64762814
H      3.94960073     5.00483447     2.61350774
H      4.19628165     6.08427765     4.01827915
H      2.55679403     5.53379677     3.60008091
C      5.30124757     3.18997713    -4.02516313
H      6.34723444     2.89850094    -3.98566286
H      5.21118416     4.07474551    -4.64937856
H      4.71666678     2.38301535    -4.45891991
N      4.61350168     2.39025833     2.15407231
N      3.89336516     5.15965489    -0.22195782
N      6.66083031     1.82082460     3.12714469
N      1.86037175     5.67555535    -1.25491397
O      4.36144204     0.79302760     4.22106433
O      4.16793390     6.72346584    -2.31192197
O      2.33609900     1.17704599     2.66010847
O      6.16481351     6.39260594    -0.70165751
O      2.94813708     2.97431295     4.07361769
O      5.60420221     4.56426957    -2.09912975
P      3.63883622     1.73630792     3.34260483
P      4.88451640     5.80557082    -1.40203885
S      6.47787823     3.82967891     1.30396723
S      2.02959894     3.71785447     0.62390128
Ni     4.25301313     3.77707978     0.96848306
H      2.40850822     6.31988992    -1.82506169
H      6.11549710     1.17357837     3.69670837
