109
GODNOD | source=oin | metal=Ni#0 | donors=[47, 53, 101, 107] (NSNS) | vertices=4 | polytope=square_planar/tetrahedral | M-donor MAE vs crystal = 0.023 A
C     -0.03471563    -2.76770740     4.26671518
C     -0.89685831    -3.43872913     3.19158981
C     -0.55305117    -4.92582901     3.12121315
O     -0.62126840    -2.88590117     1.93275361
P     -1.68455554    -1.59833662     1.57178998
O     -1.53412922    -0.49073053     2.59043605
O     -3.30762723    -2.13899183     1.55368629
C     -3.46482357    -3.22145352     0.65888855
C     -4.18866202    -4.35342319     1.38524633
C     -4.29703632    -2.76247520    -0.53992375
N     -1.23358578    -0.98101569    -0.01201953
C     -1.82987042     0.15408559    -0.70301159
N     -2.87074193     0.93614652    -0.06427483
C     -3.67299671     2.03103844    -0.65452748
C     -4.74927934     2.51001677     0.45815890
C     -5.61521521     3.70703391    -0.16695588
C     -6.45548246     3.15111840    -1.45440940
C     -5.33840454     2.69031783    -2.55163232
C     -4.38054303     3.93807493    -3.00776588
C     -3.63825338     4.45487370    -1.63708786
C     -4.68167724     4.99045312    -0.52064760
C     -2.71875631     3.28932269    -1.02414912
C     -4.45733377     1.47464084    -1.97164336
S     -1.21897329     0.58072694    -2.20011841
Ni     0.27660715    -0.60674199    -0.97633423
S      1.79788804    -1.53526118     0.42987997
C      2.39016740    -0.28157979    -0.50128349
N      3.18152888     0.77885805     0.05381981
C      3.74294072     0.93544063     1.40684625
C      2.58258517     0.96214455     2.53214453
C      3.27708082     1.24468034     3.97275598
C      4.02284823     2.67359436     3.98917735
C      5.17633609     2.58895609     2.86346208
C      6.26306500     1.44648662     3.20985453
C      5.44416051     0.04966577     3.19549079
C      4.32411396     0.06878360     4.37310376
C      4.78247490    -0.23954727     1.74819584
C      4.53341332     2.34982146     1.41571590
N      1.80792441    -0.02225546    -1.79525860
P      2.05681839    -1.07064738    -3.18311477
O      1.04789053    -0.72453946    -4.25660894
O      3.62908262    -0.75300077    -3.78478531
C      3.76095926     0.62463034    -4.10290915
C      5.10224103     1.12493606    -3.56427828
C      3.70001007     0.80970651    -5.62135455
O      1.97312118    -2.73975426    -2.78502710
C      0.64506802    -3.13885352    -2.49422445
C     -0.10356675    -3.56608072    -3.77026504
C      0.71451349    -4.33141310    -1.53326508
H      1.04174622    -2.79227423     3.97887441
H     -0.34248884    -1.70947167     4.41837596
H     -0.16293432    -3.29008979     5.24321095
H     -1.97015580    -3.36311301     3.47350942
H      0.51715746    -5.06249627     2.85653574
H     -0.74891140    -5.42284268     4.09462861
H     -1.16726376    -5.42058364     2.34107327
H     -2.50771327    -3.63868949     0.27102672
H     -4.39065487    -5.19630611     0.68946770
H     -5.14986618    -3.99662375     1.80566674
H     -3.56372547    -4.73362208     2.21453238
H     -5.31023272    -2.43770129    -0.21430064
H     -4.39794492    -3.58982010    -1.27793549
H     -3.79681309    -1.90493080    -1.04687343
H     -3.11044232     0.66875581     0.91557691
H     -5.41630740     1.67037919     0.73255599
H     -4.22455361     2.86619568     1.37077746
H     -6.34936427     4.03059161     0.60225739
H     -7.09163034     2.29223023    -1.16098976
H     -7.08993278     3.96161944    -1.87016908
H     -5.87898064     2.32866804    -3.45302965
H     -3.62758475     3.59364902    -3.74511149
H     -4.98668838     4.75470600    -3.44337788
H     -2.97289649     5.29894892    -1.91096866
H     -4.14008573     5.33982197     0.38394396
H     -5.29881852     5.81388328    -0.93648838
H     -1.95354515     3.03910802    -1.77760883
H     -2.20497488     3.65376929    -0.11214745
H     -5.11405922     0.62220954    -1.69755481
H     -3.75892476     1.14458761    -2.76758304
H      3.37556085     1.54905710    -0.62595771
H      2.04753824    -0.00120281     2.59555643
H      1.85078104     1.76275213     2.30385851
H      2.47739066     1.26492645     4.74070273
H      3.30116189     3.48239351     3.73141561
H      4.46498245     2.87374629     4.98532076
H      5.70824895     3.56549524     2.84314587
H      7.05973100     1.43061668     2.44081072
H      6.71106812     1.62716459     4.20703661
H      6.16279826    -0.77148256     3.41641443
H      4.80033150     0.28781083     5.35771272
H      3.80481800    -0.90929235     4.42108960
H      5.58033178    -0.28219564     0.97054825
H      4.26596955    -1.22469128     1.78049761
H      5.33490236     2.34224803     0.65406055
H      3.83311411     3.17838747     1.18533696
H      2.98122844     1.27921826    -3.64967558
H      5.23640502     2.19796339    -3.79454110
H      5.13792969     0.99826955    -2.45837388
H      5.94121188     0.54993831    -4.01202502
H      2.70328784     0.50518210    -5.99711846
H      3.86417441     1.87206551    -5.88401736
H      4.47399775     0.18705014    -6.11776445
H      0.06492276    -2.33928918    -1.98059847
H      0.51357871    -4.28754719    -4.36382082
H     -1.07101193    -4.05175141    -3.50110549
H     -0.34325015    -2.69772427    -4.40510196
H      1.36218038    -4.09445714    -0.65366831
H     -0.31302413    -4.58744779    -1.15367502
H      1.15279916    -5.21904851    -2.05798737
