109
GODNOD | source=rxembed | metal=Ni#106 | donors=[0, 1, 92, 93, 104, 105] (CCNNSS) | vertices=2 | polytope=linear | M-donor MAE vs crystal = 0.006 A
C      2.69401556    -0.04270428    -0.36128395
C     -2.03932877    -1.38300723    -0.40849240
C      4.92291202     1.14816835    -0.92425005
C     -4.37061339    -2.36562845     0.24421309
C      6.06020641     1.77575677    -0.06513877
H      5.70754882     2.71963677     0.40797720
H      6.34344738     1.08118116     0.75696669
C     -5.73451053    -2.51428994    -0.49411421
H     -5.63223014    -3.21790267    -1.35010035
H     -6.04972417    -1.53256122    -0.91298596
C      7.29726552     2.07353904    -0.93903688
H      8.09812163     2.51970439    -0.31010633
C     -6.82133942    -3.03642788     0.46993198
H     -7.78512172    -3.13506393    -0.07482454
C      6.90674371     3.06503331    -2.05533731
H      7.79374016     3.29897570    -2.68405441
H      6.55537606     4.02158541    -1.60914681
C     -6.39769452    -4.41404717     1.02026945
H     -7.17926549    -4.80539578     1.70773907
H     -6.29493877    -5.14244909     0.18623215
C      5.79133060     2.44755000    -2.92534746
H      5.51403871     3.16105721    -3.73185854
C     -5.05598411    -4.27764560     1.76982950
H     -4.75406331    -5.27002141     2.16971735
C      6.29950542     1.13086480    -3.55511245
H      5.50710647     0.68552506    -4.19607202
H      7.17618304     1.33676472    -4.20772817
C     -5.21668713    -3.27912702     2.93814848
H     -5.97679634    -3.65678166     3.65691437
H     -4.25639848    -3.18329812     3.49122667
C      6.69589506     0.13850551    -2.43855382
H      7.06654698    -0.80530353    -2.89520544
C     -5.64945076    -1.90121679     2.38980888
H     -5.77300299    -1.18841643     3.23390985
C      5.46321259    -0.16568098    -1.55852394
H      5.73796053    -0.89014123    -0.76008118
H      4.68887620    -0.64959836    -2.18980688
C     -4.57042616    -1.36876488     1.42128975
H     -4.88253123    -0.37721734     1.03092074
H     -3.63046619    -1.21784755     1.98856770
C      4.55260622     2.15459851    -2.04871806
H      3.75139620     1.75332080    -2.70004678
H      4.17109621     3.10017942    -1.60388538
C     -3.97083225    -3.76214044     0.79854931
H     -3.84206832    -4.48219636    -0.03938153
H     -3.00903795    -3.72409676     1.34465795
C      7.80876907     0.76057945    -1.56891812
H      8.70871400     0.96270614    -2.19079626
H      8.11101372     0.04751851    -0.77056837
C     -6.98974867    -2.04350698     1.63871381
H     -7.31627059    -1.05318911     1.25201761
H     -7.77912687    -2.40482391     2.33406503
C      1.78015713    -2.73774442     3.44509422
H      2.51955742    -2.98184165     2.64572789
C     -3.41209944     1.81885442    -0.76561122
H     -3.86572829     0.80546590    -0.84375131
C      2.47715317    -2.78604433     4.80970457
H      2.96338169    -3.77363792     4.95893850
H      1.74335724    -2.61661859     5.62656880
H      3.25987832    -2.00316026     4.87508440
C     -3.32269350     2.14218407     0.72533995
H     -4.32802332     2.08943726     1.19488274
H     -2.90576062     3.16027653     0.88089775
H     -2.66188995     1.40303606     1.22681255
C      0.70530080    -3.82358974     3.38062340
H      1.14634323    -4.82109272     3.59334192
H      0.26290188    -3.85667297     2.36411933
H     -0.10166027    -3.61885727     4.11688183
C     -4.34033372     2.81110011    -1.46759661
H     -4.40858769     2.56381578    -2.54805718
H     -3.95140446     3.84692723    -1.36529462
H     -5.36090032     2.75979640    -1.03106019
C      0.50615864     1.53655844     2.37593512
H     -0.08723910     0.68952694     1.96169219
C     -0.66701858     2.36606832    -3.85157027
H     -1.69232631     2.78859861    -3.72400690
C      0.60715101     2.60789567     1.28849517
H      1.13449520     2.20109426     0.40224749
H      1.17028950     3.48970342     1.66153461
H     -0.40413970     2.93319157     0.96719988
C     -0.34039628     2.47547240    -5.34026218
H      0.68444148     2.09643930    -5.54413874
H     -1.06545322     1.87226821    -5.92721786
H     -0.41039780     3.53243021    -5.67598274
C     -0.27454720     2.07378739     3.57440271
H     -1.29966227     2.37340748     3.26789930
H     -0.35730991     1.28288268     4.34948710
H      0.24406098     2.95223874     4.01522978
C      0.32432825     3.20488282    -3.03742988
H      0.09969221     3.12465184    -1.95393368
H      1.36411263     2.85114298    -3.20578585
H      0.25429318     4.27434785    -3.32928994
N      1.89290075    -0.65258953     0.65891465
N     -1.22564479    -0.75021920    -1.39480793
N      3.75783286     0.88119335    -0.05753199
N     -3.36134509    -1.86910815    -0.71507157
O      3.63175875    -0.68088089     2.68604384
O     -3.02550210     0.20210028    -3.14986223
O      1.16083487    -1.47634390     3.27338875
O     -2.11697353     1.91993274    -1.32429062
O      1.81053208     1.19131323     2.80526690
O     -0.55923947     1.00838630    -3.47202079
P      2.17217546    -0.42272630     2.37858265
P     -1.79367788     0.59816782    -2.36468334
S      1.94140794    -0.05033101    -1.80206334
S     -1.18972911    -1.81205345     0.90743070
Ni     0.34840374    -0.78869208    -0.38654175
H     -3.64207008    -1.80279101    -1.71868561
H      3.76288354     1.30415979     0.89658941
