69
NUDXOC | source=oin | metal=Zn#0 | donors=[16, 17, 41, 61, 64, 65] (NNNNNN) | vertices=6 | polytope=octahedral | M-donor MAE vs crystal = 0.065 A
N      6.07919980     4.00611118    -0.67055268
C      4.99456690     3.25354505    -1.09029756
C      5.18916071     1.73657580    -1.45587658
C      4.00488638     1.00013709    -1.80993729
C      2.56921026     1.59457782    -1.74524840
S      1.13066432     0.52490971    -1.82586784
O      1.68672131    -0.65455678    -2.56682272
O      0.10213999     1.08165293    -2.76628201
N      0.25400502     0.01878174    -0.31871274
C      1.20692393    -0.89140086     0.59115189
S      2.70985732     0.00491870     0.62057154
C      3.22274087    -0.36844087     2.40207091
C      1.81610368    -1.32260336     2.84051946
N      0.76862476    -1.17028707     1.83640746
Zn    -0.25305170    -1.85371853     0.25864218
N     -1.30449284    -2.47021562    -1.63150616
C     -0.22737544    -3.19601810    -2.63500410
C      0.59683753    -3.90306959    -1.54161753
N      1.48984590    -2.85362219    -0.43775509
C      1.47200596    -4.05924863     0.61841501
C      0.15514654    -4.82188080     1.04442737
N     -0.89602519    -3.77678517     1.11936858
N     -1.81030889    -0.89528686     1.03969991
C     -2.31209139    -0.18162148     2.21489606
N     -1.94242198    -0.34722761     3.08250414
C     -2.31673052    -0.26628878     4.47709220
C     -3.64370412    -0.20781006     4.67012383
S     -3.94048966    -0.07922718     2.61360795
S     -3.05239584    -0.12925772    -0.26558964
O     -4.44532989    -0.69487262    -0.05326377
O     -2.69925079    -0.35373364    -1.69116766
C     -3.25990973     1.67193907    -0.21046377
C     -2.29822849     2.54924987    -0.73316831
C     -2.40009431     3.95463220    -0.69050221
C     -3.54990426     4.52698324    -0.15670312
N     -3.69756098     5.94611575    -0.04048693
C     -4.57751532     3.69256214     0.26292250
C     -4.44426435     2.29634260     0.21869470
C      2.34670179     2.92326847    -1.46063594
C      3.52911831     3.88254346    -1.07309309
H      6.51091744     3.93451853     0.28043198
H      6.49475117     4.73247132    -1.30679324
H      6.14742055     1.32705230    -1.28219686
H      4.10087304    -0.04731185    -1.92166347
H      3.25029252    -0.62351046     1.30472196
H      1.45758220    -1.47566429     3.83474034
H     -1.61212727    -3.28955092    -1.14717960
H     -1.38397179    -1.87956686    -2.98186348
H      0.64085887    -2.53523773    -2.94633227
H     -0.58838133    -4.01181433    -3.06440708
H     -0.19806418    -4.52105673    -1.19435196
H      1.24915454    -4.67276460    -2.12765298
H      2.00139927    -3.17291265    -1.16997278
H      1.90063202    -3.59595842     1.51376954
H      2.14624169    -4.88910534     0.37495146
H      0.27210518    -5.43536783     1.97614050
H     -0.21297883    -5.59935584     0.36887311
H     -1.69050473    -4.20947918     1.58333400
H     -0.40941719    -3.43912357     2.01439386
H     -1.63065331    -0.53238620     5.28532624
H     -4.18950427     0.06930096     5.50010754
H     -1.41156120     2.15227754    -1.17529580
H     -1.60201678     4.57957633    -1.04932331
H     -3.06699788     6.60427436    -0.55035137
H     -4.44510013     6.34803655     0.57099763
H     -5.47412162     4.14519728     0.62877295
H     -5.30908984     1.72576910     0.52746026
H      1.39900084     3.33697621    -1.27898260
H      3.39994541     4.80704306    -0.65170563
