69
NUDXOC | source=rxembed | metal=Zn#67 | donors=[4, 42, 43, 48, 52, 55, 56] (CNNNNNN) | vertices=5 | polytope=trigonal_bipyramidal | M-donor MAE vs crystal = 0.003 A
C      2.37883041    -2.18907304    -2.18531175
H      2.08070521    -2.54944281    -3.16059706
C      3.71597703    -1.68645460    -1.85284389
H      4.54259878    -1.62702074    -2.54733346
C      2.32038425    -1.62225593    -0.10797434
C      2.39803720     1.19392857     2.05604974
C      1.22628628     1.92739862     2.28586092
H      0.34443066     1.44040692     2.68244242
C      1.18101626     3.29254066     1.98810613
H      0.26886763     3.84720592     2.16973377
C      2.30167842     3.93343113     1.44290744
C      3.47302628     3.19840951     1.21068375
H      4.34488166     3.68086643     0.78675841
C      3.52147444     1.83490987     1.51654319
H      4.42872286     1.27901913     1.31858074
C     -4.35972208    -0.48330972     0.41342228
H     -5.10133286    -0.67586851     1.17646236
C     -4.69241287    -0.15512179    -0.89586472
H     -5.69534209    -0.05711465    -1.28879378
C     -2.28966804    -0.27002986    -0.42364200
C     -0.77610027     2.36505018    -1.60361096
C     -1.30101826     2.94304625    -0.43998567
H     -1.24606330     2.41692914     0.50419618
C     -1.90612454     4.20153535    -0.48966719
H     -2.30911118     4.63434620     0.41711004
C     -1.99109836     4.89560204    -1.70482708
C     -1.46128056     4.31964798    -2.86858368
H     -1.51700155     4.84664911    -3.81259426
C     -0.85487419     3.06051960    -2.81805055
H     -0.44595848     2.63238311    -3.72413305
C     -0.43924540    -3.54609486     2.82226543
H     -0.06552860    -3.33077080     3.84818009
H     -1.38235690    -4.12755729     2.93408774
C      0.61261940    -4.39176575     2.08729276
H      1.61774447    -4.04364093     2.41383515
H      0.52224328    -5.46021046     2.38618697
C     -0.59698677    -4.99900509     0.05651079
H     -0.35520058    -6.08497954     0.03354326
H     -1.52289491    -4.86356048     0.65663753
C     -0.86711616    -4.50817810    -1.36588956
H     -1.69265725    -5.10442221    -1.81543315
H      0.04520134    -4.65749250    -1.98467793
N      1.56771802    -2.14299372    -1.18109406
N      1.70806164    -1.34934152     1.00148114
N      2.24789711     5.32519189     1.11860585
H      3.07782436     5.81140820     0.71090344
H      1.37812528     5.87913217     1.28422677
N     -3.02685111    -0.54346447     0.67399193
N     -0.85565749    -0.24652875    -0.42234880
N     -2.61487398     6.18164967    -1.75699767
H     -3.02838035     6.60918056    -0.89878786
H     -2.67200615     6.71329077    -2.65425442
N     -0.69880251    -2.29215208     2.11358331
H     -1.52872278    -2.45806712     1.50129129
H     -1.00718376    -1.58064507     2.81478827
N      0.52367719    -4.24369241     0.62874452
N     -1.22336197    -3.09107469    -1.35426155
H     -1.25854108    -2.76267381    -2.34622261
H     -2.19847297    -3.01338236    -0.98460935
O      1.61746456    -0.83728147     3.59659579
O      3.82489130    -1.02196013     2.58888413
O      0.02628871     0.14306104    -2.88391119
O      1.40762077     1.00041353    -1.04706326
S      3.80755213    -1.26283488    -0.48730388
S      2.41946062    -0.53836127     2.36192642
S     -3.26444399     0.06672828    -1.75534361
S      0.00136344     0.78667881    -1.52558776
Zn    -0.09380556    -2.01597199     0.11266124
H      1.40752789    -4.62676523     0.21771482
