69
NUDXOC | source=crystal | metal=Zn#67 | rxembed donors=[4, 42, 43, 48, 52, 55, 56] (CNNNNNN) | vertices=5 sites=[[4, 42, 43], [48], [52], [55], [56]] | polytope=trigonal_bipyramidal | MAE=0.000 (reference)
C     -2.98210815     1.85161466     6.01437625
H     -2.46772287     1.18795797     6.68619414
C     -3.77645767     1.48500168     4.98992196
H     -4.02415244     0.50195637     4.64778181
C     -3.55753224     3.87557767     5.31575270
C     -5.47486346     6.94597668     4.72590983
C     -6.67311438     6.78018475     4.05815682
H     -6.68777345     6.16748347     3.17014667
C     -7.81258900     7.39905618     4.53288222
H     -8.75457959     7.28125871     4.01632474
C     -7.76204603     8.17936683     5.69431926
C     -6.53482744     8.34171955     6.34963750
H     -6.48433700     8.94306517     7.24538605
C     -5.39868406     7.73104656     5.86259808
H     -4.44771877     7.84994454     6.35576231
C     -3.72747410     8.95906419     8.96761398
H     -3.27040948     9.90559303     8.73675725
C     -4.85201829     8.76929888     9.68882035
H     -5.47232116     9.49722487    10.16966148
C     -3.77645457     6.75385901     8.84255993
C     -5.38630179     3.70796278     7.91640558
C     -6.15396697     4.64600879     7.25272976
H     -6.01199330     5.69625404     7.44994241
C     -7.09314763     4.23427427     6.32996012
H     -7.68760213     4.96417552     5.80205700
C     -7.27221952     2.87461103     6.05890907
C     -6.51663388     1.93831644     6.77179503
H     -6.66109015     0.88514194     6.58144570
C     -5.58070329     2.35671908     7.69403092
H     -4.97468206     1.65145606     8.23978609
C     -0.10793100     7.04297209     6.01891551
H      0.55675508     6.94188870     6.88050153
H      0.10468122     7.99628439     5.52126438
C      0.11314405     5.89894866     5.02686261
H     -0.57212672     6.05675390     4.19227580
H      1.14538676     5.89926447     4.65062230
C      0.82708533     4.07480934     6.49791879
H      1.50752063     3.43329291     5.92287053
H      1.40788510     4.89738651     6.92028928
C      0.19666222     3.28143413     7.64438280
H      0.98182159     2.89920780     8.30824642
H     -0.35971087     2.44073374     7.23121799
N     -2.84601248     3.19590831     6.19077887
N     -3.53115997     5.18727068     5.38639239
N     -8.90310023     8.72740868     6.21430615
H     -9.70981172     8.80135005     5.61928975
H     -8.80364114     9.43193710     6.92441548
N     -3.13248874     7.83145219     8.49373189
N     -3.40226196     5.52456268     8.47063041
N     -8.22304834     2.46471922     5.15477066
H     -8.11860139     1.53229434     4.78917953
H     -8.51854191     3.15068185     4.47945832
N     -1.48934313     6.94547779     6.46245692
H     -2.07930847     7.18113461     5.65859990
H     -1.74018428     7.59403476     7.21622625
N     -0.23333706     4.63991632     5.67341097
N     -0.74941142     4.14851615     8.33425163
H     -0.26639844     4.77618975     8.96859102
H     -1.42307213     3.60640735     8.88074998
O     -4.31355335     5.33884502     2.98866471
O     -2.97328762     7.13798049     4.00504837
O     -4.80808391     4.54796381    10.33498258
O     -3.16282677     3.16733756     9.18039594
S     -4.41048741     2.89280744     4.17337505
S     -4.00723148     6.13313116     4.15261796
S     -5.20094561     7.06985946     9.82788223
S     -4.15336690     4.22059604     9.09342986
Zn    -2.16541890     5.02130481     6.98892973
H     -0.52722377     3.95846502     4.98404051
