71
ROLWAR | source=rxembed | metal=Pd#0 | donors=[35, 70] (BrBr) | vertices=2 | polytope=linear | M-donor MAE vs crystal = 0.001 A
Pd    -0.08163847    -2.07915880     3.27685342
As     1.85123798    -0.99080262    -0.21679752
C      3.45458622    -1.89870511    -0.89419438
C      4.75673321    -1.52780182    -0.51729005
H      4.92798476    -0.73473289     0.19457895
C      5.86177912    -2.19084143    -1.05902920
H      6.86201603    -1.90324973    -0.76252973
C      5.67680121    -3.21998409    -1.98470581
H      6.53353653    -3.73035106    -2.40396243
C      4.38563454    -3.58757191    -2.37056059
H      4.24141494    -4.38309022    -3.08990066
C      3.27934755    -2.92690185    -1.82915041
H      2.28230151    -3.21454019    -2.13840247
C      2.15869282     0.62820193    -1.28293934
C      1.25588496     0.91427944    -2.31460244
H      0.41782208     0.25562721    -2.50168505
C      1.42112464     2.05607456    -3.10254283
H      0.70636595     2.28055103    -3.88341565
C      2.50326794     2.91037735    -2.87687794
H      2.62867695     3.79734200    -3.48432187
C      3.42479296     2.61798643    -1.86827654
H      4.26583732     3.27656776    -1.69679429
C      3.25819171     1.47897395    -1.07595662
H      3.97345342     1.28220102    -0.29173560
C      2.57300674    -0.37380162     1.50113790
C      2.32187262     0.92934563     1.95540004
H      1.78425537     1.62976491     1.33557109
C      2.77354460     1.33711187     3.21391007
H      2.58994302     2.34799871     3.55231750
C      3.44921713     0.43576326     4.04069729
H      3.79389168     0.75023177     5.01749106
C      3.66462750    -0.87550764     3.61178107
H      4.17020793    -1.57838405     4.25939717
C      3.21642550    -1.28297802     2.35157054
H      3.37394200    -2.30617932     2.03625652
Br     0.63729119    -4.02075289     2.02432759
As    -2.20216029    -0.61266453    -0.69550443
C     -1.71744195     1.28072484    -0.54317027
C     -1.88875586     2.13869702    -1.63958539
H     -2.34699672     1.77609192    -2.54890423
C     -1.45351830     3.46537418    -1.57235943
H     -1.59455391     4.12548615    -2.41887925
C     -0.81953008     3.93454829    -0.42051752
H     -0.47709887     4.95983032    -0.37163681
C     -0.61224938     3.07456221     0.66075404
H     -0.10277922     3.43219196     1.54473489
C     -1.04188725     1.74622471     0.59263232
H     -0.83969225     1.07873720     1.41901142
C     -2.90318843    -0.89016837     1.11609907
C     -3.55722805     0.11976347     1.84278906
H     -3.66266830     1.11489945     1.44102444
C     -4.06967253    -0.14809701     3.11588501
H     -4.56821946     0.63411438     3.67385688
C     -3.93758938    -1.42443184     3.66953766
H     -4.33383586    -1.63025057     4.65531775
C     -3.29340632    -2.43515977     2.94957931
H     -3.19111335    -3.42419334     3.37709233
C     -2.78246371    -2.16892777     1.67579225
H     -2.29296631    -2.96086844     1.12140121
C     -3.98192063    -0.39789947    -1.49659633
C     -4.46659300    -1.43562191    -2.30334488
H     -3.85709533    -2.31089548    -2.48440031
C     -5.73832401    -1.35065757    -2.87932616
H     -6.10294130    -2.15382071    -3.50615428
C     -6.53727038    -0.22823467    -2.64805849
H     -7.52180231    -0.16238461    -3.09400900
C     -6.06433172     0.80940194    -1.84055529
H     -6.68458334     1.67722699    -1.65831950
C     -4.79369811     0.72544088    -1.26196163
H     -4.45229924     1.54074694    -0.64441327
Br    -0.50419600    -0.00285035     4.44657005
