71
ROLWAR | source=crystal | metal=Pd#0 | rxembed donors=[35, 70] (BrBr) | vertices=2 sites=[[35], [70]] | polytope=linear | MAE=0.000 (reference)
Pd     2.78615832     9.77255107     4.52422493
As     1.86572641     8.04913432     5.83065552
C      2.92960530     6.54501025     5.22284699
C      2.94919013     5.32476352     5.89219116
H      2.35590289     5.20323847     6.79405328
C      3.73142375     4.28598092     5.42131931
H      3.74262600     3.34055035     5.94439218
C      4.50402457     4.45775356     4.28343898
H      5.11544626     3.64522480     3.91961270
C      4.49948055     5.67087076     3.61641629
H      5.10679623     5.80690350     2.73323381
C      3.71555973     6.71029370     4.08571651
H      3.72100488     7.67368830     3.54818589
C      0.01697673     7.51101345     5.53977594
C     -0.37505420     6.20263663     5.29862326
H      0.37034495     5.41655106     5.24945133
C     -1.71398081     5.90723596     5.10432580
H     -2.01553654     4.88778088     4.91151404
C     -2.66327263     6.91378236     5.14798453
H     -3.70569015     6.67892152     4.99121788
C     -2.27704975     8.22428290     5.37787561
H     -3.01541819     9.01244937     5.39725045
C     -0.94080216     8.52036973     5.56877189
H     -0.62057044     9.55160591     5.72109190
C      1.99631622     7.87545286     7.76611103
C      0.88928245     8.11586280     8.57358692
H     -0.06258579     8.37088378     8.11661367
C      0.99795901     8.02378182     9.95030145
H      0.13304675     8.20865909    10.57106267
C      2.21314798     7.70010314    10.53003671
H      2.29727579     7.63261793    11.60463022
C      3.32112727     7.46870033     9.73164891
H      4.27180115     7.22312079    10.18124293
C      3.21635283     7.55885760     8.35571234
H      4.08716265     7.38980903     7.73148551
Br     4.49119497    10.07181980     6.21416862
As     3.70655800    11.49589834     3.21760831
C      2.64260185    12.99990284     3.82550669
C      2.62299078    14.22015986     3.15619288
H      3.21626940    14.34171070     2.25432818
C      1.84075964    15.25891346     3.62712046
H      1.82951792    16.20435595     3.10407531
C      1.06820905    15.08709661     4.76502900
H      0.45680452    15.89961834     5.12890150
C      1.07276597    13.87395642     5.43201067
H      0.46546030    13.73790471     6.31520096
C      1.85667907    12.83455776     4.96264714
H      1.85125436    11.87112382     5.50011235
C      5.55527611    12.03398826     3.50850437
C      5.94726015    13.34237618     3.74964136
H      5.20180898    14.12841187     3.79884549
C      7.28617813    13.63782434     3.94388410
H      7.58769122    14.65728948     4.13669789
C      8.23549674    12.63130280     3.90019670
H      9.27791063    12.86619790     4.05691472
C      7.84931205    11.32078414     3.67034510
H      8.58770044    10.53263672     3.65099066
C      6.51307100    11.02465167     3.47948702
H      6.19286374     9.99340219     3.32719897
C      3.57587082    11.66957996     1.28216399
C      4.68290122    11.42922828     0.47467587
H      5.63478673    11.17424540     0.93163714
C      4.57420746    11.52132447    -0.90203372
H      5.43911915    11.33647707    -1.52280601
C      3.35899532    11.84495839    -1.48175290
H      3.27483408    11.91237444    -2.55634712
C      2.25104169    12.07639915    -0.68334131
H      1.30036993    12.32199675    -1.13292698
C      2.35583683    11.98623560     0.69259258
H      1.48503977    12.15533011     1.31682321
Br     1.08108381     9.47302376     2.83390424
