71
ROLWAR | source=oin | metal=Pd#0 | donors=[1, 35, 36, 70] (AsBrAsBr) | vertices=4 | polytope=square_planar/tetrahedral | M-donor MAE vs crystal = 0.031 A
Br    -0.08749786     0.90719615     2.26684737
Pd    -0.07258042    -0.19264478     0.06425571
Br    -0.11265998    -1.34178893    -2.11421652
As    -2.43195353     0.00015118    -0.04803497
C     -3.11251555     1.80467872    -0.28479204
C     -2.20545557     2.81480040    -0.57836782
C     -2.63707550     4.10333155    -0.85180665
C     -3.98349326     4.38166672    -0.82149341
C     -4.92024944     3.40689370    -0.49668068
C     -4.48245741     2.09626302    -0.25273127
C     -3.53331662    -1.03764728    -1.27285510
C     -3.88220409    -0.44345570    -2.58304394
C     -4.45143020    -1.21617079    -3.56177985
C     -4.69144038    -2.56680194    -3.27100295
C     -4.37686247    -3.12052281    -2.05402784
C     -3.77787876    -2.38134098    -1.03977406
C     -3.00544172    -0.58713625     1.73291028
C     -3.77481259     0.23571465     2.54929867
C     -4.02265189    -0.15953538     3.85298121
C     -3.49042634    -1.40145627     4.35527547
C     -2.72761231    -2.20749049     3.52599698
C     -2.48255873    -1.77723091     2.19027869
As     2.29406731    -0.10985963     0.02899498
C      3.13970446    -1.73524909    -0.66824609
C      2.39244004    -2.93340036    -0.66785637
C      2.88755611    -4.08237411    -1.29728095
C      4.16187865    -4.06439774    -1.88785962
C      4.94892195    -2.90516415    -1.81553376
C      4.44717844    -1.74733533    -1.19450640
C      2.98860010     1.35292316    -1.07416505
C      3.37405560     1.15137497    -2.38313185
C      3.76589428     2.20632495    -3.20732311
C      3.72667464     3.49717206    -2.72160161
C      3.29533969     3.72253615    -1.40286100
C      2.92178156     2.64657893    -0.59480580
C      3.30895979     0.03073133     1.70376451
C      2.80124702    -0.69408153     2.84841681
C      3.39648497    -0.52660631     4.11686513
C      4.51285462     0.35405949     4.23912274
C      5.01227019     1.05918193     3.09796919
C      4.44679308     0.91624913     1.83570754
H     -1.14545110     2.59288036    -0.63469698
H     -1.92343093     4.88069460    -1.09206718
H     -4.33085862     5.38794885    -1.01700696
H     -5.97361927     3.63870141    -0.46705272
H     -5.19883395     1.31416921    -0.03260789
H     -3.62390374     0.58965537    -2.79057353
H     -4.69446241    -0.80959743    -4.53256600
H     -5.12722013    -3.19496642    -4.03486336
H     -4.56633628    -4.18033194    -1.88921374
H     -3.49410783    -2.85872460    -0.10942409
H     -4.13974850     1.19980147     2.21075839
H     -4.61563243     0.46754685     4.49964052
H     -3.68993917    -1.70906937     5.37839533
H     -2.29663056    -3.13069200     3.89475558
H     -1.82528303    -2.36406438     1.56501639
H      1.40724323    -2.96011051    -0.22463610
H      2.27547558    -4.97851459    -1.33867216
H      4.53046240    -4.95080478    -2.38735830
H      5.93132617    -2.89924536    -2.25346876
H      5.05162981    -0.85304562    -1.16125923
H      3.35762861     0.15580842    -2.81268437
H      4.07397443     2.01154478    -4.22403292
H      4.02259599     4.33246037    -3.34973540
H      3.23751562     4.73923229    -1.01970347
H      2.55173979     2.83358112     0.39833337
H      1.96855087    -1.37601087     2.73908188
H      3.02374238    -1.06220437     4.97882119
H      4.98523625     0.49186668     5.20715970
H      5.84732197     1.74511809     3.23157288
H      4.82088697     1.49023498     1.00518134
