92
SIFJUO | source=oin | metal=Fe#0 | donors=[5, 64, 78] (CCC) | vertices=3 | polytope=trigonal_planar | M-donor MAE vs crystal = 0.107 A
C      0.79162923    -3.54339697     2.20314335
C      0.82247723    -4.05578341     0.79030240
C      0.88316325    -5.43949088     0.55701535
C      0.94526105    -5.93042632    -0.74965563
C      0.96638655    -5.06160097    -1.83508218
C      0.91430479    -3.67639406    -1.61170792
C      0.98085049    -2.73448752    -2.78358669
C      0.84062425    -3.16232705    -0.29807276
O      0.81877788    -1.78665012    -0.07288567
C     -0.32925045    -0.99266639    -0.17384864
C     -0.33313383     0.27285466    -0.02263322
Fe     0.83753425     1.20741251     1.27024004
C      1.71791028     0.46765336     2.78069253
C      2.86938652     0.77871555     3.60237259
C      2.97542701     0.36378005     4.92950687
C      3.97746299     0.71417484     5.80296611
C      4.97261501     1.58550844     5.30876888
C      5.01272770     1.94451971     3.97583412
C      3.91381460     1.54504840     3.08987213
C      1.75163385     2.67208639     0.48318424
C      2.76224377     2.49661590    -0.58407220
C      3.78021280     3.46926144    -0.69717437
C      4.48601130     3.63265384    -1.90228698
C      4.20069502     2.76668052    -2.98057086
C      3.13345413     1.79480839    -2.83060843
C      2.35971439     1.75254891    -1.65518618
C     -1.49122241     0.73040743    -0.38609592
O     -1.86822404     2.06144888    -0.64070223
C     -1.20315671     2.99672314    -1.44218094
C     -0.57651802     2.67273020    -2.66735637
C     -0.78080049     1.33078434    -3.31972432
C      0.21254868     3.64166166    -3.32890723
C      0.22445777     4.96230974    -2.89551082
C     -0.42840617     5.33137388    -1.72696513
C     -1.18598409     4.35825914    -1.02156007
C     -1.92641200     4.76264325     0.22087709
N     -2.38280868    -0.25407797    -0.27945136
C     -3.78739958    -0.10423282     0.03748086
C     -4.23289594     0.97675765     0.79011531
C     -5.58964791     1.19786561     0.99044265
C     -6.49771096     0.27734281     0.46384154
C     -6.10021346    -0.81111800    -0.25865494
C     -4.75699944    -0.97770984    -0.46885602
N     -1.63130255    -1.39575921    -0.31519716
C     -2.13819118    -2.72538850    -0.16253358
C     -2.52475880    -3.21176938     1.07537902
C     -2.99911619    -4.49408863     1.27588565
C     -3.11722765    -5.30822165     0.17531762
C     -2.77867869    -4.84506736    -1.09641166
C     -2.29525627    -3.56342343    -1.29493392
H      1.82686016    -3.33648021     2.54541314
H      0.32797959    -4.29058862     2.88326130
H      0.19321139    -2.61053024     2.27815989
H      0.88215912    -6.13571604     1.38659242
H      0.98858936    -6.99915365    -0.91725168
H      1.02842055    -5.46277545    -2.83886345
H      1.97178066    -2.23456760    -2.80361831
H      0.18642978    -1.96554565    -2.70639013
H      0.82807676    -3.27110722    -3.74388775
H      0.71369890     0.41794930     3.22218581
H      1.94911660    -0.34017046     2.08376963
H      2.17003686    -0.23351369     5.33361793
H      3.96992330     0.39674999     6.83693133
H      5.77517757     1.90230801     5.96596843
H      5.83450185     2.52983010     3.58810618
H      3.95778787     1.81301873     2.04502273
H      0.85162297     3.13880677     0.12825829
H      2.07520568     3.02780183     1.45299631
H      3.97731610     4.15188952     0.12198549
H      5.25784557     4.38421928    -1.98851501
H      4.75665642     2.83459416    -3.90363379
H      2.89196308     1.14040067    -3.65669697
H      1.55887877     1.04507675    -1.56967451
H     -0.13216403     0.55772538    -2.87138719
H     -1.84138584     1.01388719    -3.21476547
H     -0.55505579     1.37786712    -4.40660918
H      0.73218536     3.38939660    -4.24569602
H      0.78308747     5.70457428    -3.45335764
H     -0.39494938     6.35894898    -1.39735631
H     -1.41012148     4.35048348     1.11388356
H     -2.96644229     4.37078031     0.18663060
H     -1.97641778     5.86846914     0.31964927
H     -3.53215387     1.67969370     1.22546427
H     -5.93795514     2.05118998     1.55847792
H     -7.55482626     0.43789674     0.62935698
H     -6.82150525    -1.50166797    -0.67112856
H     -4.45248672    -1.80035844    -1.09743956
H     -2.42303727    -2.56655810     1.93684847
H     -3.26566649    -4.84421429     2.26147975
H     -3.48865988    -6.31779923     0.29657572
H     -2.89252907    -5.50652371    -1.94693400
H     -2.03916450    -3.21683759    -2.28825484
