92
SIFJUO | source=crystal | metal=Fe#0 | rxembed donors=[5, 64, 78, 44] (CCCC) | vertices=4 sites=[[5], [44], [64], [78]] | polytope=square_planar | MAE=0.000 (reference)
Fe     2.33790639     6.25602526     6.34376042
O      3.41947354     4.25874623     9.28530590
O      4.00005923     8.87198920     8.02289623
N      4.62958087     6.08248514     9.94700393
N      4.73734799     7.41766743     9.63746591
C      3.36398016     6.45763555     8.06077205
C      3.76256667     5.53198829     9.02838032
C      2.55615565     3.56913009     8.44514365
C      1.37166048     3.09796540     9.01446584
C      0.52254598     2.33099275     8.23144075
H     -0.40395278     1.97121221     8.65331427
C      0.85533755     2.01940049     6.92589788
H      0.18615092     1.42003618     6.32687353
C      2.05569655     2.45406506     6.39426759
H      2.33180901     2.17152969     5.38888784
C      2.92863625     3.23342710     7.14344838
C      4.26426103     3.64183496     6.59992623
H      5.03873422     3.52358730     7.35582564
H      4.23593242     4.69703745     6.30479095
H      4.52282125     3.04255365     5.73124332
C      1.05653808     3.41160932    10.44509517
H      1.84272731     3.02935316    11.09549661
H      0.10795502     2.96908113    10.73579169
H      1.00145447     4.48873401    10.59841795
C      5.73313093     8.24522607    10.17389621
C      5.46883043     9.59903818    10.36919890
H      4.50347257     9.99691246    10.10464132
C      6.44775792    10.41739020    10.89791259
H      6.23989766    11.46624828    11.04687701
C      7.68434127     9.89878735    11.24899202
H      8.44201061    10.54106188    11.67056328
C      7.94449772     8.55151163    11.05443711
H      8.90781317     8.14215214    11.31881927
C      6.98059593     7.72340965    10.51376610
H      7.19377023     6.67763112    10.35178351
C      4.00014905     7.61980528     8.49552285
C      3.27326110     9.16092507     6.87201943
C      2.32920726    10.18264268     6.97816034
C      1.63898320    10.56799640     5.83931029
H      0.90489502    11.35522124     5.90989849
C      1.89721369     9.96492905     4.62231013
H      1.35305400    10.27318607     3.74277364
C      2.88426281     9.00383141     4.52122708
H      3.14817131     8.60397132     3.55426261
C      3.59736024     8.57834637     5.64098223
C      4.81185918     7.70396749     5.48726682
H      5.22858589     7.82281622     4.49027445
H      4.55776520     6.64601252     5.62575776
H      5.57028881     7.97142573     6.22057215
C      2.13189005    10.88135445     8.28777593
H      2.99831082    11.50726732     8.50620763
H      2.01989231    10.15850347     9.09234115
H      1.24632134    11.50846352     8.25496613
C      4.98034159     5.56059840    11.19863414
C      5.44137289     4.24801412    11.28935350
H      5.51918627     3.64550661    10.39900042
C      5.78889881     3.72724395    12.51985872
H      6.14274762     2.70929271    12.58537617
C      5.69774818     4.50492860    13.66409084
H      5.97904060     4.09558527    14.62195572
C      5.23953195     5.81003093    13.57205684
H      5.15701346     6.41856851    14.45996696
C      4.87465264     6.33998241    12.35063286
H      4.50204755     7.35106315    12.28842099
C      0.83205809     6.21731951     7.71224881
H      0.36859167     5.45836536     7.06373538
H      0.91193877     5.83916374     8.72879528
C      0.13289158     7.48538692     7.67287231
C     -0.04473001     8.26511443     8.82436144
H      0.35775162     7.90999995     9.76501860
C     -0.74957299     9.44981108     8.78445840
H     -0.89601843    10.02059426     9.69227361
C     -1.28321699     9.90734026     7.58959660
H     -1.84798929    10.82859044     7.56360091
C     -1.09351133     9.16621223     6.43291355
H     -1.50724431     9.51287242     5.49621565
C     -0.40047284     7.97529098     6.47193476
H     -0.28505497     7.38757115     5.57370957
C      2.24533403     5.67344862     4.38024075
H      2.90615935     6.19359686     3.68346617
H      2.56365820     4.62689332     4.47965781
C      0.85606885     5.75163376     3.95949479
C     -0.07917141     4.79601834     4.38856716
H      0.26076976     3.97613713     5.00797845
C     -1.41020104     4.88925800     4.04131964
H     -2.10967044     4.14176182     4.39065695
C     -1.85670604     5.93166033     3.24313225
H     -2.89936599     6.00258025     2.96979540
C     -0.94814726     6.87774778     2.79421289
H     -1.28471799     7.68907267     2.16283721
C      0.38350119     6.78981585     3.14294008
H      1.07941873     7.53500624     2.78498995
