92
SIFJUO | source=rxembed | metal=Fe#0 | donors=[5, 64, 78, 44] (CCCC) | vertices=4 | polytope=square_planar | M-donor MAE vs crystal = 0.004 A
Fe     2.64812555    -0.29400724    -0.39348130
O     -0.36262953     1.60785516    -0.61518067
O      0.76920350    -2.96954629     0.42348416
N     -1.50410901    -0.30826867     0.38554518
N     -1.16344216    -1.54426322     0.72126983
C      0.66428906    -0.57860279    -0.16986561
C     -0.41562117     0.28973244    -0.14918915
C     -1.35225486     2.18285556    -1.42425425
C     -1.93119606     3.40701167    -1.03248621
C     -2.96007559     3.96901461    -1.80298884
H     -3.43435738     4.89390001    -1.49821920
C     -3.39112300     3.34070659    -2.96956088
H     -4.18749293     3.78020082    -3.55567533
C     -2.79508309     2.15106523    -3.38728089
H     -3.14051257     1.68324579    -4.30086232
C     -1.76096764     1.57052488    -2.63603508
C     -1.13715731     0.29127168    -3.12384638
H     -1.28430280     0.16570473    -4.21747373
H     -1.59908028    -0.57291688    -2.60311602
H     -0.04448782     0.29537296    -2.93526325
C     -1.49799381     4.08186235     0.23747768
H     -0.39666380     4.21493541     0.23573912
H     -1.79957805     3.46426053     1.10907401
H     -1.95996247     5.08599598     0.34374861
C     -2.01072014    -2.50730542     1.37003664
C     -1.55321016    -3.19722034     2.50457810
H     -0.56595019    -3.00004245     2.90150407
C     -2.37611304    -4.13031329     3.14123996
H     -2.02086351    -4.65433129     4.01910864
C     -3.65743405    -4.38557662     2.64573058
H     -4.29325217    -5.10910226     3.13773809
C     -4.11596514    -3.71034142     1.51127434
H     -5.10515795    -3.91432001     1.12376174
C     -3.29531228    -2.77560578     0.87294745
H     -3.65298358    -2.27670504    -0.01778505
C      0.11809653    -1.73813291     0.35669672
C      1.91339125    -3.20791787    -0.34079088
C      1.78564264    -3.71222378    -1.65066946
C      2.93606770    -3.92362092    -2.42563367
H      2.85614594    -4.29470766    -3.43970198
C      4.19984571    -3.66347962    -1.89441320
H      5.08458609    -3.84392982    -2.49157796
C      4.32581533    -3.16913089    -0.59527446
H      5.31522786    -2.98895110    -0.19272448
C      3.18549665    -2.91307897     0.18172047
C      3.35631418    -2.50755494     1.61652763
H      2.46862335    -1.95777548     1.98510107
H      3.49467941    -3.41483577     2.23991328
H      4.24536702    -1.85302750     1.73435217
C      0.42592367    -3.96472923    -2.23911827
H      0.49148023    -4.58773825    -3.15604552
H     -0.21628637    -4.50006475    -1.50770423
H     -0.04957501    -2.99560369    -2.49907991
C     -2.71121062     0.34976913     0.79420826
C     -3.76101661     0.54193069    -0.11480267
H     -3.67804145     0.17591396    -1.12899217
C     -4.92493833     1.20335990     0.28724674
H     -5.72909306     1.35956832    -0.41960257
C     -5.05131469     1.66063610     1.60245502
H     -5.95304718     2.17261877     1.91307742
C     -4.01760199     1.44696787     2.51914706
H     -4.11948956     1.79136595     3.53943628
C     -2.85267855     0.78668062     2.11784488
H     -2.06042315     0.61336613     2.83307063
C      2.54868861     0.92584555     1.24044747
H      2.30075662     1.57869521     0.41335314
H      3.51535714     0.43900344     1.23982548
C      1.83841497     1.08571574     2.51883439
C      2.25244731     0.37661761     3.65837690
H      3.10285650    -0.29099229     3.61417283
C      1.57223845     0.53502296     4.87059702
H      1.89132972    -0.01716219     5.74528127
C      0.48681138     1.41104696     4.95612857
H     -0.03710289     1.53432974     5.89548980
C      0.08477379     2.13707489     3.83113106
H     -0.75111985     2.82161251     3.89821664
C      0.75817397     1.97417439     2.61691859
H      0.44359489     2.54772736     1.75772032
C      4.08689658     0.02231545    -1.82506721
H      4.81937013    -0.03868970    -1.02994196
H      3.75987963    -0.88886263    -2.30867103
C      3.58828281     1.32518921    -2.29290593
C      4.02951357     2.51284385    -1.68748158
H      4.75486584     2.48253845    -0.88404381
C      3.51197643     3.74453721    -2.09844157
H      3.84193368     4.65613875    -1.61913054
C      2.56075486     3.79887704    -3.12098434
H      2.15386733     4.75170352    -3.43091541
C      2.13336125     2.62251439    -3.74203698
H      1.39684850     2.66522796    -4.53338617
C      2.65144081     1.38964966    -3.33702351
H      2.30923639     0.48458330    -3.82282368
