65
SIKQIO | source=oin | metal=Mo#0 | donors=[1, 3, 5, 9, 48, 49, 52, 55] (CNNNCCCC) | vertices=8 | polytope=square_antiprism | M-donor MAE vs crystal = 0.077 A
C     -3.94591386    -1.71972395     1.87694236
C     -2.45967392    -1.40097399     1.89574568
C     -1.67126929    -2.10969637     2.71638896
C     -0.36702045    -2.05411524     2.28922165
C      0.76072604    -2.78425632     2.96242429
N     -0.36288109    -1.37613954     1.04291049
Mo     0.69562554     0.41408300     0.55727039
C      1.85201653     2.02343162     0.18598858
O      2.84439371     2.56007936     0.26183814
C      1.20596207     0.38358988     2.54311040
O      1.59512113     0.39430354     3.60336504
C      2.83722899    -0.30620937     1.01190522
C      4.03457519    -0.44209036     0.22509554
C      5.15764771     0.38718594     0.23398692
C      5.99170384     0.44191096    -0.90421085
C      5.51688789    -0.11838104    -2.13390839
C      4.20100687    -0.53670450    -2.24900506
C      3.48299030    -0.71303580    -1.07599257
C      2.07314505    -0.86940131    -0.77263228
C      2.06050455    -1.30447206     0.51695122
N      0.08442739     0.25847658    -1.45919373
C      0.30873606    -0.60005911    -2.55947755
C      1.23270360    -0.18348714    -3.68036226
C     -0.96430787    -1.21114649    -2.88140541
C     -1.86049220    -0.15838193    -2.55642884
C     -3.32800420    -0.29008967    -2.81564207
N     -1.29113025     0.24916684    -1.39261212
B     -2.14628115     0.07989712     0.15558601
N     -1.69074779    -1.16231033     0.82063088
N     -2.21361779     1.12823570     1.55789805
C     -3.24998691     1.93879363     1.51662200
C     -4.69607352     1.58715495     1.42586356
C     -2.68761481     3.00832046     0.79544024
C     -1.40987978     2.68336511     0.49973285
C     -0.44392863     3.78879545     0.08017134
N     -1.02261152     1.52219184     1.21596143
H     -4.49357372    -1.27120825     1.02437541
H     -4.07600244    -2.81805648     1.79412606
H     -4.40345748    -1.35093691     2.82552927
H     -2.00054591    -2.65625425     3.57798691
H      1.66830198    -2.15893399     3.03834335
H      0.93770712    -3.74805310     2.43960080
H      0.49292116    -3.00959788     4.00771973
H      3.25366323    -0.43565018     2.02408582
H      5.45787364     0.84565109     1.17724317
H      6.96719317     0.90717607    -0.81996748
H      6.15404702    -0.07617291    -3.00804002
H      3.80659191    -0.84546098    -3.20271282
H      1.77348927    -1.72535603    -1.36098250
H      2.05652636    -2.33927640     0.83041435
H      1.69760078    -1.07987718    -4.16044854
H      2.00161257     0.52481627    -3.32292697
H      0.67059332     0.38362975    -4.45928487
H     -1.09555712    -1.82454751    -3.77397682
H     -3.85887225     0.64270246    -2.53491511
H     -3.50207398    -0.47669685    -3.90233656
H     -3.75975544    -1.12475907    -2.21885304
H     -3.27072668    -0.07771984    -0.19423732
H     -4.96066095     0.77562678     2.12350421
H     -4.95785178     1.32524366     0.37902023
H     -5.31240319     2.48766425     1.68596958
H     -3.25369849     3.90993525     0.48693139
H      0.30938097     3.99877339     0.88618855
H      0.06658414     3.53508248    -0.87941759
H     -0.96583736     4.76160829    -0.08523154
