65
SIKQIO | source=crystal | metal=Mo#0 | rxembed donors=[1, 8, 29, 11, 5, 2, 12] (CCCNNNC) | vertices=6 sites=[[1], [2], [5], [8], [11], [12, 29]] | polytope=octahedral | MAE=0.000 (reference)
Mo     8.27627827     3.60852889     0.59789842
C      9.34469770     2.82566629    -0.79709128
N      7.19840273     4.31924676     2.47349061
N      9.56190908     6.20622450     1.64549235
O      7.61569414     0.61779037     1.09622232
N      9.38296663     5.46966862     0.53743713
N      7.78162542     5.31903852     3.15944467
O      9.92584344     2.22696722    -1.59218542
C      7.63271616     1.76829966     0.82568626
N     10.00155309     4.24005320     3.04955946
C     10.12173762     7.39005584     1.34451575
N      9.81445898     3.31619897     2.08696528
C      7.08724801     4.18977903    -1.38825478
H      7.11441772     5.19301811    -1.80488440
C      6.97805227     5.74388359     4.15475306
C     10.64010868     2.29862793     2.33623493
C      7.14386691     3.01749135    -2.25546353
C     10.93514617     3.81960559     3.92028527
C      5.83968454     4.96779883     4.11924584
H      4.99042889     5.02593887     4.76942534
C      7.30851784     6.85595156     5.08351975
H      8.12783308     6.57918861     5.74528786
H      6.43675413     7.09024331     5.68879396
H      7.60570592     7.74514856     4.53118269
C      6.34810368     2.39619348    -0.14084626
H      5.48457194     1.92105920     0.32429924
C      9.84928188     6.18163182    -0.49270918
C      6.66427260     1.91915065    -1.51619075
C      6.02950146     4.07176367     3.06223853
C      6.32590522     3.88156077    -0.24169107
H      5.53385028     4.50521760     0.16937049
C     10.31489818     7.41267401    -0.02305355
H     10.74023140     8.20420892    -0.60601966
B      9.27601705     5.59512390     3.01431771
H      9.65976103     6.30080652     3.87603914
C      7.55551677     2.84932691    -3.56309411
H      7.93140086     3.68163826    -4.14092835
C      6.61063185     0.65961575    -2.06525241
H      6.26346955    -0.18542419    -1.48874310
C     11.36659451     2.57687806     3.49539563
H     12.10571252     1.95597671     3.95929997
C     10.77937441     1.08741025     1.48862555
H      9.84243931     0.53988594     1.42939255
H     11.53899261     0.43674727     1.91456654
H     11.07762077     1.35900604     0.47854912
C      9.90730906     5.74895076    -1.91429330
H      9.76302377     4.67946182    -2.01128807
H     10.87864303     6.01671920    -2.32723954
H      9.14712390     6.26252729    -2.50268979
C      7.01812117     0.50025211    -3.38838690
H      6.97421989    -0.47808385    -3.84315064
C     11.38237986     4.59199609     5.10890154
H     11.84020745     5.53309315     4.80926514
H     12.11176388     4.00848824     5.66381534
H     10.54037701     4.81642650     5.76093566
C      7.48052289     1.57732249    -4.12161620
H      7.79476469     1.42985270    -5.14463268
C      5.09794256     2.95678646     2.74024839
H      4.46218551     3.18527736     1.88534518
H      4.44986869     2.78994121     3.59846397
H      5.65486615     2.04200086     2.54765828
C     10.44425678     8.44060877     2.34420145
H      9.55915965     8.71405887     2.91527006
H     10.82191800     9.32235819     1.83373178
H     11.20095077     8.08809602     3.04293277
