65
SIKQIO | source=rxembed | metal=Mo#0 | donors=[1, 8, 29, 11, 5, 2, 12] (CCCNNNC) | vertices=6 | polytope=octahedral | M-donor MAE vs crystal = 0.008 A
Mo     0.82333543     0.24273336     0.00094836
C      2.22681222    -1.07462548     0.19482805
N     -1.09050640     1.32047301    -0.63062033
N     -1.86821200    -1.05710843     1.00052915
O      1.61528289     0.63635274    -2.19657990
N     -0.56643124    -0.83377813     1.28035865
N     -2.30754981     0.74428308    -0.56260178
O      3.19097860    -1.63967471     0.35182104
C      1.90558707     1.25431568    -1.30378358
N     -1.49359836    -1.38114959    -1.38216107
C     -2.49113338    -1.63765590     2.04509159
N     -0.15904705    -1.16108025    -1.33197246
C      2.00952516     1.24342133     1.82393015
H      1.58270060     0.97715852     2.77514489
C     -3.28697600     1.63818245    -0.80063178
C      0.35663293    -1.98146718    -2.30369009
C      3.46343007     1.33034709     1.56058944
C     -1.80130088    -2.26202173    -2.35398947
C     -2.71663504     2.84604466    -1.07293112
H     -3.21775699     3.76217169    -1.35879771
C     -4.75488821     1.33943813    -0.86519791
H     -4.96469557     0.69233017    -1.74224682
H     -5.33954885     2.27853569    -0.96307582
H     -5.07391590     0.82115246     0.06293264
C      2.31513097     2.25536522    -0.21997953
H      2.25794810     3.29488060    -0.59656970
C     -0.39270628    -1.34759396     2.53518140
C      3.70127198     2.03460009     0.39562363
C     -1.35758545     2.61717421    -0.97942395
C      1.41221658     2.04504112     0.99409869
H      0.39190413     2.36919912     1.11802905
C     -1.57946801    -1.83869388     3.04222716
H     -1.74053436    -2.32482643     3.99603742
B     -2.50318674    -0.76732980    -0.37889542
H     -3.62474100    -1.14765569    -0.50261820
C      4.52103830     0.84496907     2.32862491
H      4.33739921     0.31158406     3.25224099
C      4.98451837     2.22134988    -0.10921108
H      5.14427252     2.71232583    -1.05999735
C     -0.64690967    -2.67438859    -2.95255713
H     -0.53829670    -3.43623437    -3.71413407
C      1.79867328    -2.36200214    -2.49388953
H      2.07129669    -3.14085124    -1.75197358
H      2.49630791    -1.51365281    -2.40513402
H      1.94502211    -2.79096150    -3.50806337
C      0.89592663    -1.49804596     3.28248846
H      0.96938171    -2.53058611     3.68458878
H      1.77919114    -1.33525884     2.64998159
H      0.91306702    -0.79305550     4.13930957
C      6.06328929     1.73824895     0.65129344
H      7.07600446     1.87693589     0.29592586
C     -3.17048878    -2.79119676    -2.65994358
H     -3.53849943    -3.39049175    -1.80119175
H     -3.14629936    -3.43599769    -3.56381943
H     -3.86576129    -1.94668661    -2.84832867
C      5.83290166     1.05676700     1.86629372
H      6.67106944     0.68526549     2.44125359
C     -0.35914286     3.66671651    -1.34743366
H      0.11239370     4.08550675    -0.43793637
H     -0.86333221     4.50990780    -1.86611269
H      0.38407572     3.26027826    -2.05843113
C     -3.92528301    -2.07269929     2.08171055
H     -4.19599435    -2.43839778     3.09476643
H     -4.58366318    -1.21593850     1.82811471
H     -4.08449750    -2.89194930     1.34996011
