88
WAVBUS | source=crystal | metal=Zn#0 | rxembed donors=[1, 8, 5, 7, 2, 6, 39] (ONNNONC) | vertices=5 sites=[[1, 2, 39], [5], [6], [7], [8]] | polytope=trigonal_bipyramidal | MAE=0.000 (reference)
Zn     2.51742505     2.21430786     7.30598438
O      1.29280845     1.61626593     5.89929574
O      0.84167950     1.07099291     7.95227649
O     -1.36718495    -0.25012351     8.48471854
O     -1.57776314     1.97963337     8.74653630
N      1.45177663     3.80627272     8.18635367
N      3.83691472     2.75124965     8.98991724
N      3.39200914     0.37128057     7.96855878
N      4.10366385     3.13730461     6.34233912
C      0.17573253     4.05662124     7.91861444
C     -0.61882608     4.84085229     8.73698904
C     -0.06133868     5.37616163     9.88644784
C      1.27492044     5.12325939    10.15925206
C      1.99909839     4.33176931     9.28149457
C      3.47182998     4.07526505     9.47111427
C      3.56538578     1.70989740     9.96790847
C      3.45331660     0.36723102     9.29742918
C      3.37089575    -0.79963802    10.04059654
C      3.17166009    -1.99801332     9.37372940
C      3.09101771    -1.99018813     7.99342001
C      3.22031696    -0.78092203     7.31483381
C      3.19191827    -0.71898899     5.84812204
C      4.19209694    -0.03363854     5.16393546
C      4.18846824     0.00112680     3.78239906
C      3.17116350    -0.61694885     3.07414351
C      2.16542201    -1.28667060     3.75082269
C      2.18226230    -1.35407479     5.13109721
C      5.19466170     2.69477497     8.46846609
C      5.25264242     3.07815557     7.00983175
C      6.47295885     3.31892159     6.39519586
C      6.49169496     3.60400605     5.03797684
C      5.29261125     3.67698417     4.35409232
C      4.10106864     3.45678853     5.04330860
C      2.80098443     3.60331535     4.38100624
C      1.82270303     4.41195044     4.95451097
C      0.58930281     4.54776087     4.34531372
C      0.31618852     3.87001021     3.16894354
C      1.29270254     3.08040163     2.58478763
C      2.53507604     2.95773007     3.17742887
C      0.52827091     1.06858663     6.73930099
C     -0.71312809     0.42227621     6.25715400
C     -0.97683785     0.40783918     4.88873339
C     -2.10300387    -0.22101330     4.39735268
C     -2.98030699    -0.84919989     5.26961887
C     -2.73995272    -0.83723278     6.63170659
C     -1.61309166    -0.19892056     7.12989895
C     -1.15520814     0.91894263     9.13694287
C     -0.45646872     0.72043972    10.42853447
C     -0.01629230    -0.53156818    10.84471480
C      0.66531508    -0.65773339    12.04161390
C      0.92432965     0.45979608    12.81954150
C      0.49205735     1.71026775    12.40429364
C     -0.20170941     1.83997798    11.21599522
H     -0.21966517     3.61505600     7.01676486
H     -1.65315123     5.00252534     8.48536292
H     -0.65157494     5.97866102    10.55998978
H      1.74787302     5.52992140    11.03983065
H      4.00787510     4.81816122     8.87077461
H      3.75454962     4.21917659    10.52274837
H      2.59667956     1.91768274    10.43447492
H      4.32856173     1.67959233    10.76033463
H      3.43735512    -0.76113278    11.11594133
H      3.08154666    -2.92195753     9.92393648
H      2.94537090    -2.90179000     7.43622982
H      4.99569294     0.43007512     5.71874486
H      4.98857418     0.50427677     3.25854926
H      3.16458151    -0.58276885     1.99512845
H      1.36921069    -1.76592883     3.20187583
H      1.39608720    -1.87402258     5.65893301
H      5.87814825     3.33279136     9.04566403
H      5.56113551     1.66738781     8.55058970
H      7.38707647     3.27113235     6.96574366
H      7.42777247     3.77750926     4.52991247
H      5.26235871     3.92332524     3.30496647
H      2.04888490     4.96296743     5.85584064
H     -0.16184307     5.18503029     4.78821048
H     -0.65396692     3.96295390     2.70478005
H      1.08536207     2.55854874     1.66265395
H      3.28978432     2.33245665     2.72703955
H     -0.26964992     0.89658386     4.23565142
H     -2.30023026    -0.22582185     3.33656795
H     -3.86015120    -1.34507640     4.88917311
H     -3.41680769    -1.31479558     7.32272600
H     -0.21755774    -1.39669106    10.23318169
H      0.99036283    -1.63222099    12.37477104
H      1.45459118     0.35594684    13.75472014
H      0.68518033     2.57946694    13.01601829
H     -0.56355553     2.79993471    10.87997538
