88
WAVBUS | source=rxembed | metal=Zn#0 | donors=[1, 8, 5, 7, 2, 6, 39] (ONNNONC) | vertices=5 | polytope=trigonal_bipyramidal | M-donor MAE vs crystal = 0.002 A
Zn    -0.82254759    -0.30589786     0.94154486
O     -0.41662509     1.44057887     0.14363862
O      1.26708590     0.04113930     0.69627688
O      3.21926175     0.15416997    -1.11962350
O      4.08116376    -0.28384713    -3.22327461
N     -0.07781962    -0.08450661     2.90529144
N     -1.05879066    -2.35879746     1.70728289
N     -0.48430751    -1.40045745    -0.87470511
N     -2.86420004    -0.15826594     1.27453644
C      0.49552109     1.05746497     3.38006638
C      0.98723917     1.10996002     4.68513302
C      0.89409412    -0.01909352     5.49486348
C      0.31332495    -1.18416946     4.99287954
C     -0.16773119    -1.20820006     3.67539223
C     -0.87778275    -2.43190144     3.17014844
C     -0.00600431    -3.06714583     0.95653723
C      0.12765252    -2.55486564    -0.46075085
C      0.93705465    -3.26624340    -1.35685271
C      1.10562232    -2.79631748    -2.65698922
C      0.46806352    -1.62712321    -3.06044037
C     -0.34889832    -0.93683535    -2.15243876
C     -1.08245127     0.26914036    -2.58144409
C     -0.43818868     1.27830194    -3.31998694
C     -1.14035721     2.42184863    -3.71024584
C     -2.49353788     2.55643721    -3.38818329
C     -3.14443075     1.54899607    -2.67154977
C     -2.43976044     0.41556106    -2.25735575
C     -2.43816518    -2.67529883     1.25203077
C     -3.30791508    -1.43596986     1.04018792
C     -4.60552946    -1.61797560     0.54182122
C     -5.40921247    -0.50781026     0.28001130
C     -4.92617959     0.77868626     0.52149849
C     -3.63262702     0.94000733     1.04015052
C     -3.08803803     2.27848611     1.33232050
C     -3.26163903     3.34197801     0.42840613
C     -2.69349797     4.59146724     0.69186972
C     -1.96553365     4.79626226     1.86691083
C     -1.81038015     3.75287866     2.78307438
C     -2.37071948     2.49965569     2.51902588
C      0.80154455     1.15748444     0.03927504
C      1.70198499     2.01539744    -0.75968026
C      1.34549032     3.35422705    -0.99899482
C      2.17214425     4.18367365    -1.75774832
C      3.36436659     3.68887323    -2.28347529
C      3.72595068     2.35736118    -2.06603223
C      2.88932930     1.50293133    -1.32400612
C      3.87803198    -0.67431604    -2.04005636
C      4.26020551    -2.04462711    -1.63730662
C      4.77432014    -2.95383896    -2.58015394
C      5.08996478    -4.26197058    -2.19985347
C      4.90334701    -4.67281133    -0.87717950
C      4.39713866    -3.77735547     0.06815136
C      4.07450825    -2.47044834    -0.30743801
H      0.55621887     1.93279535     2.75053516
H      1.43043634     2.02031357     5.06737859
H      1.25909706     0.01220604     6.51431979
H      0.22647254    -2.05536725     5.62984565
H     -0.30558146    -3.34548754     3.45190950
H     -1.85340649    -2.47754528     3.70675805
H      0.98090540    -2.91236046     1.44994920
H     -0.21447639    -4.16083523     0.95087796
H      1.43931419    -4.17565220    -1.04870006
H      1.73307141    -3.33893556    -3.35142298
H      0.58981260    -1.27675477    -4.07816292
H      0.61308698     1.19105008    -3.57084710
H     -0.63728529     3.20349499    -4.26316798
H     -3.03651469     3.43943148    -3.69828575
H     -4.19577134     1.64791991    -2.43225319
H     -2.95638866    -0.35854093    -1.70716916
H     -2.41560216    -3.22066157     0.28109723
H     -2.94525154    -3.36404055     1.96115034
H     -4.98659151    -2.61231012     0.34266450
H     -6.40928493    -0.64621347    -0.11457209
H     -5.55976970     1.63435926     0.32563794
H     -3.81766384     3.20298643    -0.48800329
H     -2.81883871     5.40161824    -0.01597759
H     -1.52609716     5.76420614     2.06888125
H     -1.25366027     3.91355704     3.69630321
H     -2.25635394     1.70479421     3.24428139
H      0.43001911     3.76359817    -0.58888071
H      1.89131637     5.21486724    -1.92883374
H      4.01211202     4.33940213    -2.85808682
H      4.66942991     2.00488894    -2.45873406
H      4.91809074    -2.65973437    -3.61339421
H      5.47853834    -4.95913621    -2.93201512
H      5.14600569    -5.68730011    -0.58642397
H      4.24430801    -4.09855826     1.09194764
H      3.66876216    -1.79893340     0.43883360
