88
WAVBUS | source=oin | metal=Zn#0 | donors=[1, 2, 28, 29, 30, 31] (OONNNN) | vertices=6 | polytope=octahedral | M-donor MAE vs crystal = 0.052 A
O      2.80083713    -1.12308945     3.64897031
C      2.82370656    -0.41390780     2.61369165
O      2.03945042    -0.76943809     1.50590367
C      2.43806447    -1.73571361     0.57290518
C      3.90756766    -2.10703845     0.50803945
C      4.27579559    -3.01919163    -0.59919326
C      3.27114421    -3.64993710    -1.51229759
C      1.82721504    -3.46086414    -1.24241557
C      1.41157151    -2.41143294    -0.26959426
C      0.14011771    -1.68235805    -0.60004291
O     -0.67569778    -2.15459912    -1.55205988
Zn    -1.34418652    -0.30837599    -1.46286846
O      0.03223086    -0.33306776    -0.10182257
N      0.21121409     0.02141106    -2.87681880
C      1.30476439    -0.85383292    -2.99079438
C      1.46817352    -1.66811638    -4.14568176
C      1.17645480    -1.09108971    -5.35290101
C      0.51077049     0.10464222    -5.31555814
C     -0.30505989     0.28049977    -4.17192745
C     -1.73572111    -0.56225055    -4.19107491
N     -2.76639658    -0.46911331    -3.02257673
C     -3.44699678     0.89065409    -3.04163816
C     -3.16761637     1.82756379    -1.81964502
C     -4.21606688     1.97027661    -0.92023766
C     -4.00901973     2.31382940     0.39093946
C     -2.71089716     2.77918356     0.71407057
C     -1.64275612     2.47024319    -0.13519964
C     -0.33137367     3.04125304     0.12268887
C      0.37907076     3.70489827    -0.92464728
C      1.61245332     4.29068091    -0.66372023
C      2.13062284     4.23920966     0.64574954
C      1.52609617     3.46519669     1.62227929
C      0.32495922     2.81611756     1.33131751
N     -1.83041988     1.78193298    -1.32408468
C     -3.48622785    -1.48316928    -2.32709987
C     -4.12608167    -1.44898522    -0.86944698
C     -4.62954097    -2.70707483    -0.87924290
C     -4.64801753    -3.29837884     0.34890370
C     -3.66567009    -2.86780378     1.26262024
C     -2.61194652    -1.97516379     0.83604249
C     -1.62483401    -1.65886320     1.90671462
C     -1.29665476    -2.65260527     2.82940781
C     -0.87422561    -2.27862991     4.13703064
C     -0.58684158    -0.96208758     4.45086966
C     -0.81698024     0.00567796     3.51187256
C     -1.35319294    -0.34672483     2.26954848
N     -2.86081097    -1.19854250    -0.28510765
C      3.62823015     0.81781939     2.58293910
C      4.24320801     1.28721944     1.34122848
C      4.90293476     2.59504825     1.26770990
C      4.88765377     3.49690703     2.45212322
C      4.31876264     3.00759894     3.72146959
C      3.69105769     1.68615184     3.75710617
H      4.66341785    -1.67727112     1.14888984
H      5.31956025    -3.25618984    -0.75782892
H      3.58060260    -4.27038661    -2.32886003
H      1.12434321    -3.82478137    -1.97222511
H      1.99257637    -0.97457123    -2.17998314
H      2.13233445    -2.53070474    -4.13615722
H      1.51495630    -1.52289992    -6.28907342
H      0.16853669     0.50758292    -6.26596100
H     -1.46805757    -1.62609440    -4.29060942
H     -2.24876550    -0.32191383    -5.14474606
H     -4.53619840     0.74617025    -3.19951265
H     -3.11335977     1.48574490    -3.92088156
H     -5.22977446     1.69876333    -1.19877935
H     -4.83926740     2.41659846     1.08710112
H     -2.55073296     3.26753378     1.67023779
H     -0.06083170     3.81605371    -1.90364415
H      2.12113034     4.84170235    -1.44190194
H      3.03601494     4.78450818     0.87524033
H      1.92308927     3.42608733     2.62890035
H     -0.18199511     2.27825020     2.11184508
H     -2.83207393    -2.39420899    -2.43282660
H     -4.31021651    -1.71873528    -3.05457322
H     -5.30622212    -3.07536613    -1.64872729
H     -5.29514977    -4.14419730     0.56112759
H     -3.68716221    -3.31300651     2.24850244
H     -1.45902375    -3.69568757     2.60000390
H     -0.69642678    -3.04546054     4.87793584
H     -0.23917967    -0.69604696     5.44307938
H     -0.69197255     1.03605909     3.79882398
H     -1.67344674     0.43719659     1.62312711
H      4.17211578     0.69330476     0.44588511
H      5.31770335     2.94679175     0.33636722
H      5.31980957     4.48010692     2.39639208
H      4.29936053     3.65070792     4.59326021
H      3.21341085     1.37179030     4.68031201
