88
WELROW | source=crystal | metal=La#0 | rxembed donors=[10, 3, 11, 6, 2, 5, 4, 1] (NSeNSeSeSeSeSe) | vertices=8 sites=[[1], [2], [3], [4], [5], [6], [10], [11]] | polytope=square_antiprism | MAE=0.000 (reference)
La     8.96863758     6.85196554     3.94646168
Se    10.70824590     9.06302915     5.24054221
Se    11.31106250     7.30599320     2.10472848
Se    10.43209991     4.75176438     5.38173041
Se     7.92890152     7.10335227     6.82637098
Se     6.70329195     4.79958413     3.96735220
Se     7.39141223     7.35103668     1.45076285
P     12.12964490     8.22494110     3.86597822
P      9.50451867     5.64630377     7.12307134
P      5.93965552     6.35792752     2.70316837
N      7.58699019     9.13719453     4.27953096
N      9.54695650     4.72362171     2.28697951
C     13.21537838     7.06955674     4.78048690
C     13.47237195     5.78599733     4.32542492
H     13.00057596     5.42879303     3.41688563
C     14.32289097     4.96750814     5.04709227
H     14.51555804     3.96212155     4.70422514
C     14.91943579     5.43667862     6.20494240
H     15.58513747     4.79581308     6.76437623
C     14.66397419     6.72339101     6.65276656
H     15.13189694     7.08982088     7.55417271
C     13.80470384     7.54115611     5.94592548
H     13.57384915     8.54126393     6.29102333
C     13.32548213     9.50219235     3.34782398
C     14.29683704     9.12666108     2.42757443
H     14.29716488     8.11588534     2.04059227
C     15.23374213    10.05086895     2.00847368
H     15.98897555     9.76417352     1.29178166
C     15.20058378    11.34530108     2.50471255
H     15.93242909    12.06719438     2.17322691
C     14.22968564    11.71682657     3.41927238
H     14.20229495    12.72646296     3.80199245
C     13.28909552    10.79493861     3.84370242
H     12.52214828    11.06947601     4.55748588
C     10.84899184     6.33203710     8.14999886
C     10.85246120     7.64901729     8.57893885
H     10.03237188     8.30467103     8.31465921
C     11.91064541     8.11424690     9.34015650
H     11.92137713     9.14277285     9.66871066
C     12.94917670     7.26367504     9.67734762
H     13.77024518     7.62835647    10.27764235
C     12.94406440     5.94644810     9.24234189
H     13.75681504     5.28461815     9.50276891
C     11.90017321     5.47991433     8.46878815
H     11.88754105     4.46241803     8.09913228
C      8.76612153     4.31120870     8.12139696
C      8.93033794     4.25616408     9.49843843
H      9.54595114     4.99034789     9.99934130
C      8.30061378     3.25600915    10.21754688
H      8.42966394     3.20548721    11.28887958
C      7.50501688     2.32572356     9.56893312
H      7.01562268     1.54791083    10.13655002
C      7.33071844     2.39331702     8.19570718
H      6.70400596     1.67479952     7.68936926
C      7.95945456     3.38684395     7.47013216
H      7.82643706     3.44947565     6.39468533
C      4.57838670     5.69061766     1.69259866
C      3.55354229     5.02825640     2.35781698
H      3.60213117     4.92051026     3.43364498
C      2.49989529     4.50354022     1.63481665
H      1.70115955     3.98726495     2.14626916
C      2.47157649     4.63723721     0.25481600
H      1.64754097     4.22441729    -0.30826039
C      3.49744081     5.29362827    -0.40471263
H      3.47509252     5.39394933    -1.47987336
C      4.55526761     5.82237307     0.31353729
H      5.36544895     6.34066717    -0.18449549
C      5.09269708     7.62893997     3.71675266
C      4.64072260     8.77083486     3.06516274
H      4.78303729     8.86331669     1.99562837
C      4.03519753     9.77664310     3.79252968
H      3.68054573    10.66444557     3.28901998
C      3.88897483     9.64698269     5.16609533
H      3.42450187    10.44099097     5.73352617
C      4.32652212     8.50191524     5.81029243
H      4.20992330     8.39357819     6.87831867
C      4.92178913     7.48391139     5.08547552
H      5.24487833     6.57841716     5.58451067
C      7.32504282    10.10250703     4.84104552
C      7.03663610    11.29245636     5.56943544
H      7.97666022    11.79934158     5.79139538
H      6.54235363    11.02170059     6.50230440
H      6.39215680    11.94505763     4.98251091
C      9.25633214     4.18047160     1.31956235
C      8.87086701     3.52111626     0.11391985
H      9.69595852     2.91345308    -0.25535709
H      8.60762682     4.27376154    -0.62995923
H      8.00555784     2.88833862     0.31196949
