88
WELROW | source=rxembed | metal=La#0 | donors=[10, 3, 11, 6, 2, 5, 4, 1] (NSeNSeSeSeSeSe) | vertices=8 | polytope=square_antiprism | M-donor MAE vs crystal = 0.000 A
La    -0.61855912    -0.40343042     0.05127188
Se    -2.81238764     1.61576370    -0.78498357
Se     0.02607230     2.17882582     1.46633439
Se    -2.56708275    -1.49535285     1.95485845
Se    -2.90448448    -1.73172703    -1.51350472
Se     0.77341330    -3.11665977    -0.16188313
Se     2.32090170    -0.09484038    -0.42745268
P     -0.76503957     3.50361165    -0.16273601
P     -3.27460131    -1.82603328     0.69818416
P      2.11847463    -1.32293109    -0.30763378
N     -0.23043939     0.24381650    -2.53187886
N      0.20400257    -0.98941155     2.62023563
C      0.30942424     3.49550531    -1.59682982
C      1.70274632     3.46507657    -1.44255725
H      2.14659250     3.41675779    -0.45631418
C      2.53288227     3.49818851    -2.56799709
H      3.60833827     3.46943919    -2.44806893
C      1.97542947     3.56371837    -3.84818956
H      2.61899867     3.58114872    -4.71842928
C      0.58675268     3.61055877    -4.00426130
H      0.15548435     3.66527835    -4.99548327
C     -0.24573287     3.58302689    -2.88047856
H     -1.31994035     3.62349036    -3.01070181
C     -0.94493469     5.17879630     0.44168918
C     -2.18379188     5.82626104     0.34730085
H     -3.03911944     5.31442121    -0.07640602
C     -2.32223351     7.14187595     0.80218461
H     -3.28040412     7.64058755     0.73143636
C     -1.22295074     7.81430475     1.34620949
H     -1.33089711     8.83275486     1.69667638
C      0.01641722     7.17206771     1.43418763
H      0.86768747     7.69442177     1.85152186
C      0.15717708     5.85629319     0.98165827
H      1.12131168     5.36821502     1.05099386
C     -2.60213643    -3.32478277     1.41395143
C     -2.53825796    -4.50785130     0.66348090
H     -2.87774099    -4.52823956    -0.36371631
C     -2.02820796    -5.67608696     1.23875832
H     -1.97045057    -6.58584075     0.65447543
C     -1.59662354    -5.67076707     2.56866480
H     -1.20172660    -6.57538479     3.01300241
C     -1.68332424    -4.49930221     3.32705418
H     -1.35847762    -4.49801946     4.35946121
C     -2.19278022    -3.32983288     2.75358156
H     -2.26397983    -2.42971924     3.35135173
C     -5.03112358    -1.74761697     1.02794208
C     -5.89366884    -2.71107458     0.48820893
H     -5.50525555    -3.50740623    -0.13441250
C     -7.26538433    -2.65028096     0.75502119
H     -7.93078707    -3.39620851     0.33961376
C     -7.77740188    -1.62693193     1.55911720
H     -8.83911343    -1.58085261     1.76548362
C     -6.91831707    -0.66236022     2.09545455
H     -7.31541422     0.13015459     2.71679788
C     -5.54619353    -0.72157959     1.83028188
H     -4.88764597     0.02837828     2.25062103
C      2.93447329    -1.17565832    -1.89564169
C      3.48281458     0.05717425    -2.27262415
H      3.40483945     0.91205078    -1.61369802
C      4.13612912     0.18969516    -3.50136739
H      4.55080862     1.14616006    -3.79336670
C      4.25386278    -0.91317399    -4.35239962
H      4.75864159    -0.81035179    -5.30420932
C      3.72296377    -2.15020402    -3.97198668
H      3.82028404    -3.00530091    -4.62844653
C      3.06799648    -2.28440951    -2.74333968
H      2.66964165    -3.24927123    -2.45844430
C      3.34261225    -1.33869596     0.99581877
C      3.57469915    -0.17989019     1.74714404
H      3.02082260     0.72721275     1.54036965
C      4.52184636    -0.19106744     2.77558303
H      4.69686722     0.70347466     3.35909030
C      5.24167438    -1.35769529     3.05159517
H      5.97311422    -1.36597941     3.84900565
C      5.01820409    -2.51279490     2.29614900
H      5.57635135    -3.41503231     2.50958550
C      4.07207418    -2.50371768     1.26647841
H      3.90492963    -3.40245401     0.68680422
C      0.19364459     0.15874222    -3.60502679
C      0.73089393     0.05455083    -4.96104656
H      1.60301313     0.73251575    -5.06590070
H     -0.05188669     0.34514472    -5.69160339
H      1.04955448    -0.99044588    -5.15280438
C      0.81588299    -1.76246729     3.22563943
C      1.59210381    -2.74400409     3.98171413
H      0.96019838    -3.17786778     4.78309324
H      1.92934754    -3.55028731     3.29813509
H      2.47610068    -2.24816559     4.43255183
