88
WELROW | source=oin | metal=La#0 | donors=[1, 2, 26, 27, 51, 52, 53, 76, 82] (SeSeSeSeSeSePNN) | vertices=9 | polytope=9-coordinate | M-donor MAE vs crystal = 0.070 A
C      1.49861529    -2.70274186    -4.01570428
C      1.48961740    -1.60526036    -2.76314693
N      1.70546451    -0.80735310    -1.79370205
La     0.00395752    -0.46932237     0.30050461
N     -0.36646831    -0.80582851     2.98807375
C     -0.47789373     0.32808637     3.52557668
C     -0.95644975     1.61086471     4.58745206
Se    -0.00665786     2.61950196     0.24807508
P      1.04143028     3.65500133    -0.50983722
Se     2.01059201     1.66982972     1.11076419
C      1.74340222     4.28152581    -2.10816633
C      3.27145760     4.06732602    -2.24681055
C      3.97954433     4.47542616    -3.58424591
C      3.18394514     5.06609908    -4.68115175
C      1.75347072     5.32096724    -4.65033751
C      1.01658577     4.88922792    -3.24005666
C      0.98814565     5.14878881     0.48391720
C      2.25465603     5.46076917     1.16815185
C      2.29650860     6.52533748     2.17561154
C      1.03358866     7.30936343     2.51211294
C     -0.25948222     6.97614981     1.79679795
C     -0.25460328     5.90110359     0.79636371
Se    -1.06595686     0.33346476    -2.36775349
P     -3.33609851    -0.73190397    -0.65076448
Se    -2.67425082     0.40369937     1.38721855
C     -4.69057511     0.19280337    -1.25526252
C     -4.74161325     1.62762557    -0.90893944
C     -5.81474772     2.53257327    -1.30057987
C     -7.00076021     1.90018490    -2.16630033
C     -6.96667402     0.55284264    -2.49967141
C     -5.72412387    -0.37537225    -2.01213981
C     -3.95520615    -2.36146939    -0.31588365
C     -4.45339420    -2.59887519     1.03187753
C     -4.95933791    -3.95806939     1.41267451
C     -4.96695093    -5.09144566     0.39308064
C     -4.45999305    -4.78277191    -0.95732927
C     -3.96530387    -3.45112477    -1.32306982
Se     2.65217440    -1.58262531     1.71949108
P      2.79300899    -1.86359961     0.10237873
Se     2.97809925     0.31835127    -0.63156685
C      4.23710170    -2.92307450     1.84286668
C      5.54618410    -2.20170670     2.04534307
C      6.73910927    -2.92704442     2.62195153
C      6.54878910    -4.31312082     3.14527577
C      5.22398524    -4.98034043     3.13960765
C      4.04349318    -4.13218580     2.49476829
C      1.68732028    -3.18074974     0.87696935
C      0.53743795    -3.49933732     1.81460670
C     -0.49376958    -4.50273770     1.47176908
C     -0.42293269    -5.25482691     0.20786159
C      0.74679183    -5.01226472    -0.72395596
C      1.79234668    -4.00855766    -0.29934010
H      0.55496756    -3.11670868    -4.53884699
H      2.03409457    -3.63417541    -3.62876238
H      2.15837503    -2.34207787    -4.87437082
H     -2.10226548     1.74571491     4.50967953
H     -0.88188200     1.25576843     5.69888462
H     -0.65066568     2.75551242     4.66087044
H      3.80589557     3.66477322    -1.49708951
H      4.99454290     4.30700139    -3.63526228
H      3.68934978     5.33003720    -5.56617785
H      1.15259548     5.71855107    -5.35672403
H     -0.00891909     5.09109973    -3.26547531
H      3.11885859     4.91574250     0.93748323
H      3.16570799     6.77877791     2.68401564
H      1.07703664     8.06539969     3.22930051
H     -1.11404864     7.51327813     2.03190660
H     -1.15312556     5.66808706     0.30357396
H     -3.95384357     2.06167944    -0.33177823
H     -5.88672486     3.53860884    -1.07858851
H     -7.74226215     2.59261954    -2.42386205
H     -7.67959054     0.00881499    -3.06257938
H     -5.82309941    -1.38571087    -2.33298907
H     -4.45959642    -1.83600296     1.75342172
H     -5.31431863    -4.15174509     2.37840174
H     -5.31622553    -6.00791552     0.67664552
H     -4.46099601    -5.57267670    -1.68205314
H     -3.61074990    -3.27098503    -2.30028424
H      5.71030593    -1.25763127     1.68584821
H      7.70418649    -2.49258614     2.65061464
H      7.42227887    -4.83602100     3.56274143
H      5.11662718    -5.98118549     3.53084178
H      3.16873587    -4.74020988     2.57197811
H      0.42763418    -3.00362665     2.76595082
H     -1.33036569    -4.69772265     2.10967275
H     -1.13837213    -5.97028346    -0.09737416
H      0.87221178    -5.49456113    -1.62873053
H      2.55909095    -3.91399987    -0.96566188
