86
ZONHOB | source=crystal | metal=Ru#0 | rxembed donors=[3, 2, 24, 59, 1, 4, 6, 8] (PPCCClCCC) | vertices=4 sites=[[1], [2], [3], [4, 6, 8, 24, 59]] | polytope=square_planar | MAE=0.000 (reference)
Ru    14.28471424     5.85758362    12.69804354
Cl    16.59149113     6.19464888    13.12725718
P     13.55599193     6.36335560    14.80951115
P     14.15306628     7.97059665    11.85305180
C     13.22442606     3.73413156    12.81963527
H     12.57652376     3.33806713    13.60309394
C     14.76712359     4.73936059    10.61243166
H     15.26023150     5.13020555     9.72359897
C     14.56394553     3.38774138    12.79580296
H     14.91729604     2.74326256    13.59620060
C     10.12068907     8.57969552    11.60827830
H      9.22833830     7.99093653    11.76252267
C     11.40728390     8.15078649    15.25396305
H     12.14854083     8.87557949    15.55692846
C      9.10876092     7.58330473    14.85418141
H      8.06661520     7.86569965    14.82722930
C     12.52040226     8.75188525    11.60258231
C     13.68333301     4.89044324    15.88420438
C     14.88230339     8.04974959    10.17965722
C     10.07179451     8.50977380    15.21486900
H      9.78177479     9.51904737    15.46868593
C     11.80009928     6.85664495    14.92818104
C     14.95098053     4.31191677    15.91948994
H     15.74184267     4.73737090    15.31182210
C     12.64049222     4.58295966    11.83536521
H     11.56007044     4.69582966    11.80953875
C     14.99151317     9.34420845    12.72262981
C     11.36680993     8.00549504    11.78979103
H     11.46044668     6.97222659    12.09289191
C     10.82310470     5.93538222    14.55508948
H     11.11786663     4.93029487    14.28824825
C     14.17122020     2.68392206    17.49429330
H     14.35480476     1.82003138    18.11634250
C     16.22540962     8.85889961    16.66491365
H     17.18882213     9.29229178    16.44196916
C     15.60008378     8.06450187    15.71809730
H     16.07844619     7.86502461    14.77023596
C     14.17376240     8.47205861     9.05977219
H     13.14839872     8.79992798     9.15478927
C     12.66821798     4.37228880    16.67791369
H     11.68621419     4.82465531    16.67774796
C     14.39555012     8.51340011    18.17602668
H     13.93032663     8.67982350    19.13717257
C     16.30515929     9.72625818    12.48062222
H     16.88208593     9.23846257    11.71132985
C     12.91570745     3.26712164    17.47495363
H     12.12190462     2.86173763    18.08623711
C      9.48815728     6.29109533    14.52836595
H      8.74142121     5.56125709    14.24877127
C     15.62210468     9.09324036    17.88730537
H     16.10888884     9.71619376    18.62371438
C     15.19270697     3.21285725    16.72058921
H     16.17585320     2.76605049    16.74081862
C     14.27050952     9.98704562    13.72723664
H     13.24840598     9.68593678    13.91042633
C     16.87976430    10.73916485    13.22954643
H     17.90184116    11.02986584    13.03528304
C     16.78938796     7.59388245     8.77846512
H     17.80408801     7.23854576     8.66904513
C     13.40932115     5.02377741    10.72669566
H     12.89960168     5.59618452     9.94901521
C     13.77092051     7.71304136    17.24027438
H     12.82299550     7.24616955    17.47258771
C     14.36176987     7.50206704    15.99486997
C     16.18973158     7.58785373    10.02436558
H     16.72068812     7.19898883    10.88443137
O     16.66236491     3.13460020    11.42949396
C     14.84544669    11.00039327    14.46787145
H     14.27544142    11.49297792    15.24243567
C     10.02237564     9.90842912    11.23478392
H      9.05198475    10.36170079    11.09498215
C     12.41611970    10.08840858    11.22131099
H     13.31371015    10.67319361    11.07219020
C     16.08594645     8.03876610     7.67059534
H     16.55165014     8.03855730     6.69585287
C     17.57762441     3.49748111    10.43151675
H     18.41460988     2.79883815    10.48003800
H     17.94679159     4.51255330    10.60716824
H     17.12681125     3.45213214     9.43424035
C     16.15553660    11.37786424    14.22101580
H     16.60917998    12.16795527    14.80122470
C     14.77731759     8.46751539     7.81376488
H     14.21871908     8.79750901     6.94954763
C     11.17170734    10.66011110    11.03920777
H     11.09507868    11.69655265    10.74391166
B     15.44253973     3.71215283    11.56124671
