86
ZONHOB | source=oin | metal=Ru#0 | donors=[1, 2, 36, 70, 72, 74, 76, 78, 85] (ClPPCCCCCB) | vertices=9 | polytope=9-coordinate | M-donor MAE vs crystal = 0.099 A
C     -3.29876564     2.63941329    -0.01458143
O     -3.61340058     1.44650066     0.67139136
B     -2.68549658     0.33296370     0.32866763
Ru    -0.79298557    -1.11161162     0.02448659
Cl    -0.05707903    -3.21038510     0.24572883
C     -2.42973610    -1.38492497    -1.60167764
C     -2.50394205    -0.02948241    -1.12638613
C     -2.48829464    -2.47789858    -0.67515660
C     -2.69372355    -2.19002311     0.81656660
C     -2.74537515    -0.94274154     1.27847766
P      0.01733877    -0.12342229     1.99053980
C      1.64166879     0.71866892     2.37498889
C      2.42520039     1.14608611     1.32802771
C      3.68619715     1.67630189     1.54720035
C      4.18294851     1.81639399     2.83943379
C      3.42413259     1.40349296     3.92950052
C      2.16332919     0.84059331     3.70945726
C      0.35387555    -1.71247336     2.92488129
C      1.66437877    -2.24977590     3.03688338
C      1.87920930    -3.48014372     3.69888549
C      0.79735587    -4.20158761     4.22153786
C     -0.49674567    -3.68994252     4.11478901
C     -0.71957807    -2.45299520     3.49393828
C     -0.96801977     0.88399837     3.22073353
C     -1.01557455     0.57696260     4.56465014
C     -1.75684725     1.35856603     5.46353534
C     -2.48029747     2.42369611     5.03701698
C     -2.39026581     2.79882309     3.70908675
C     -1.57355433     2.06421272     2.83796501
P      0.27834331    -0.22171355    -1.86440846
C      1.47060989    -1.65466927    -1.90443715
C      2.67129254    -1.62732902    -1.22931350
C      3.50548757    -2.74921307    -1.18255803
C      3.14652185    -3.92321751    -1.83914653
C      1.94094101    -3.97640033    -2.53087323
C      1.11063441    -2.85178038    -2.52808923
C      1.35056924     1.28442789    -1.96958007
C      0.88209426     2.47261179    -1.34636527
C      1.66252879     3.62693707    -1.43557706
C      2.89163264     3.60573482    -2.11282264
C      3.31740655     2.46773373    -2.77379418
C      2.55747377     1.29102893    -2.70874523
C     -0.10952099     0.02120541    -3.68331398
C     -1.08250218     0.97072529    -4.08027762
C     -1.40611832     1.11410094    -5.45693642
C     -0.73679884     0.38649798    -6.42348137
C      0.29938788    -0.43544151    -6.04997236
C      0.63646418    -0.61840883    -4.70493386
H     -3.63471839     3.48728826     0.61532499
H     -3.86733976     2.67096790    -0.96692475
H     -2.21899500     2.77259849    -0.21591298
H     -2.40834624    -1.58402902    -2.66844999
H     -2.65322067     0.74780343    -1.85051741
H     -2.53560326    -3.50196767    -1.04439577
H     -2.84213027    -3.02170633     1.49707873
H     -3.03646903    -0.77964155     2.31446619
H      2.08749382     0.98446599     0.34327934
H      4.29148178     1.98630209     0.70016760
H      5.16202847     2.23989574     2.99091335
H      3.82085968     1.49963681     4.92775362
H      1.60907040     0.47143781     4.56134552
H      2.51191523    -1.75213043     2.58765124
H      2.87606649    -3.88097572     3.77601882
H      0.96275326    -5.15357745     4.71047055
H     -1.33019620    -4.24103724     4.53076260
H     -1.72379177    -2.07880357     3.48713639
H     -0.49009016    -0.28194743     4.96548247
H     -1.78587940     1.09075032     6.50781305
H     -3.08221722     3.00166591     5.73080773
H     -2.89034957     3.69514602     3.36180703
H     -1.39223007     2.44330623     1.85214566
H      2.99021220    -0.72892584    -0.71412037
H      4.43349642    -2.70178027    -0.63426397
H      3.78948923    -4.78633990    -1.80090605
H      1.63693979    -4.88874277    -3.03474848
H      0.15956970    -2.91733099    -3.02863606
H     -0.03684517     2.49441078    -0.79416511
H      1.33831778     4.54194469    -0.94926278
H      3.50076029     4.50292422    -2.14876370
H      4.25339507     2.47259927    -3.32373384
H      2.90764284     0.39554554    -3.21802669
H     -1.53913777     1.63206215    -3.37174129
H     -2.17427782     1.83353686    -5.75389976
H     -0.98668805     0.50769649    -7.46983456
H      0.86724321    -0.95126442    -6.81909699
H      1.49045874    -1.24325948    -4.47916972
