86
ZONHOB | source=rxembed | metal=Ru#0 | donors=[3, 2, 24, 59, 1, 4, 6, 8] (PPCCClCCC) | vertices=4 | polytope=square_planar | M-donor MAE vs crystal = 0.002 A
Ru     0.48899959     1.01999250     0.85607250
Cl     0.26103943    -0.10187993     2.93447558
P     -1.67649453     0.56192524     0.24975283
P      1.53917132    -0.73077149    -0.16834607
C     -0.01927077     3.34209385     0.85480169
H     -0.97719819     3.80847629     0.67838071
C      2.59801858     2.14629801     1.21596659
H      3.59578851     1.74354038     1.31443637
C      0.39053428     3.08769669     2.23837191
H     -0.24589321     3.37105120     3.06537699
C      2.47888669    -2.08217669    -4.00412851
H      2.86318330    -2.98363034    -4.46382672
C     -2.38304176    -1.98354101     1.21953588
H     -1.65338230    -1.78365703     1.98715083
C     -4.04054030    -3.47792489     0.28326660
H     -4.58229489    -4.41446338     0.31282585
C      1.79091464    -0.86011517    -2.01165880
C     -1.94679059     1.18230166    -1.49008089
C      0.90960169    -2.47783480     0.10121617
C     -3.08838353    -3.18980968     1.26135878
H     -2.89226298    -3.90338700     2.05104167
C     -2.61316151    -1.05166675     0.19618014
C     -2.29706257     2.52158184    -1.73768613
H     -2.49542153     3.20051633    -0.92240329
C      0.76227862     3.00275457    -0.18141131
H      0.42342907     3.21034474    -1.18734304
C      3.32830794    -0.94012659     0.37656433
C      2.29526702    -2.02853154    -2.61976391
H      2.56362773    -2.88973691    -2.02265313
C     -3.60951484    -1.33611397    -0.76093935
H     -3.86876238    -0.63245158    -1.53512788
C     -2.14004331     2.15099347    -4.12484783
H     -2.21941349     2.52201040    -5.13815778
C     -3.92335566     2.44429215     3.16231304
H     -3.77160786     2.74129416     4.19144731
C     -2.88958866     1.82594874     2.45419106
H     -1.95267688     1.63902209     2.95475497
C      1.20638179    -3.19978039     1.27303962
H      1.82913762    -2.79151774     2.04559533
C     -1.65970991     0.35030563    -2.58330067
H     -1.35191852    -0.66916619    -2.42438272
C     -5.35724599     2.26663532     1.22560840
H     -6.31689867     2.42867365     0.75245045
C      3.62056481    -0.96742419     1.75318779
H      2.83573367    -0.87033679     2.48466275
C     -1.77072459     0.82609478    -3.89226605
H     -1.55603269     0.16964912    -4.72497392
C     -4.30454561    -2.54898674    -0.72358209
H     -5.05965014    -2.76257183    -1.46888742
C     -5.15687225     2.66629896     2.54781943
H     -5.95928920     3.14025019     3.09834089
C     -2.40257818     2.99890840    -3.04727421
H     -2.68251403     4.02877345    -3.22586079
C      4.41668222    -0.91352326    -0.52461925
H      4.28494356    -0.76943854    -1.58262790
C      4.93568455    -1.07942364     2.21136236
H      5.13673053    -1.11326964     3.27443959
C     -0.52171138    -4.32497018    -0.60797495
H     -1.20782757    -4.75078285    -1.32829787
C      2.11296431     2.42944700     0.00437968
H      2.71150787     2.20266500    -0.86771557
C     -4.32448992     1.64811259     0.51564599
H     -4.51323919     1.34250538    -0.50208438
C     -3.06884034     1.43969556     1.11869324
C      0.00104436    -3.04613958    -0.81349039
H     -0.30470724    -2.50825013    -1.69504293
O      2.37376739     2.37596484     3.84780402
C      5.73153225    -1.03095183    -0.06336486
H      6.55275973    -1.03111180    -0.76741547
C      2.17128439    -0.97227197    -4.79415194
H      2.31070416    -1.01492121    -5.86600425
C      1.50176761     0.25051088    -2.81504547
H      1.11587981     1.15628078    -2.37486874
C     -0.18345055    -5.04121786     0.53882941
H     -0.60075655    -6.02555731     0.70622659
C      3.07488855     3.53236051     4.23745594
H      3.95474551     3.71804220     3.57901190
H      3.46261997     3.37719152     5.26492446
H      2.41044146     4.42661995     4.26999409
C      5.99040991    -1.12888931     1.30238212
H      7.00916134    -1.21425083     1.65732724
C      0.67069165    -4.47396300     1.48380869
H      0.91058184    -5.01850055     2.38840277
C      1.68452027     0.19374594    -4.19936107
H      1.44625248     1.05370006    -4.81103652
B      1.83673225     2.59047007     2.49354813
