97
ZOPJOG | source=oin | metal=Ti#0 | donors=[1, 2, 37, 49, 61, 62] (OONNOO) | vertices=6 | polytope=octahedral | M-donor MAE vs crystal = 0.121 A
C      3.90052061    -1.95275305    -3.64268894
C      2.76567769    -1.11243232    -3.07300329
C      2.85174313     0.29401489    -3.69823383
C      1.42943232    -1.77158489    -3.43981302
C      2.89570498    -1.08233585    -1.56237999
C      3.90712787    -1.95329602    -0.87423558
C      3.92813735    -2.00240461     0.61458369
C      2.91616984    -1.25949038     1.38882618
C      2.87904577    -1.23597410     2.90483844
C      3.10473987     0.17177030     3.49935467
C      1.53559346    -1.76187766     3.40915546
C      3.95054329    -2.19985783     3.37543206
C      1.84060491    -0.70276296     0.74405681
O      1.25981774     0.59727188     0.86815814
Ti    -0.30508721     1.47015019     0.04706174
O      1.25841379     0.68466260    -0.85983692
C      1.97424501    -0.39121066    -0.75294811
O     -1.00045790     0.22235449    -1.18357032
C     -2.16780965    -0.44392883    -0.72415021
C     -3.27415383    -1.13832208    -1.49212671
C     -3.32073971    -0.98547465    -2.96207305
C     -4.48082454    -1.76609188    -3.50157145
C     -2.02843606    -1.53758568    -3.59959054
C     -3.51076199     0.50847166    -3.26626948
C     -4.30654455    -1.85614137    -0.74909978
C     -4.29024097    -1.93421950     0.68912667
C     -3.20167019    -1.24150575     1.47089626
C     -3.14848823    -1.37896187     2.96279775
C     -4.32741305    -2.20028352     3.47136810
C     -3.19205341     0.02542005     3.58368986
C     -1.83413757    -2.08841115     3.32423328
C     -2.16250898    -0.51851142     0.76586479
O     -1.01381612     0.07503320     1.17008222
N      0.50867759     2.93055947     1.48758143
C      1.93832796     3.16497764     1.86192516
C     -0.21864006     2.84914721     2.74677646
C      0.02206522     4.09292691     0.81916542
C      0.83086420     4.19356779    -0.40088292
N      0.50503185     3.06471134    -1.23688480
C      1.50279513     3.14423285    -2.29254609
C     -0.79233382     3.34739796    -1.90556291
H      3.78560102    -3.00079548    -3.28165053
H      4.89077133    -1.50584126    -3.36602733
H      3.78852392    -1.94983903    -4.71975598
H      1.87901692     0.63497511    -4.09668928
H      3.48025583     0.23213873    -4.59345771
H      3.29905837     1.06545484    -3.03917394
H      0.69609384    -1.03538062    -3.80166192
H      1.59419542    -2.48036411    -4.26706936
H      0.96438060    -2.29672042    -2.58318754
H      4.64147085    -2.52824697    -1.37959659
H      4.69083889    -2.58766740     1.06210023
H      3.61814504     0.85785788     2.79914588
H      2.14767903     0.65930120     3.79288560
H      3.68549792     0.06558578     4.43220032
H      0.77308405    -0.95718436     3.46081579
H      1.69946179    -2.09941623     4.43860153
H      1.17511993    -2.61813639     2.80038472
H      4.95047746    -1.78554897     3.10469808
H      3.87214878    -2.33285326     4.44951406
H      3.76657003    -3.19788302     2.90772863
H     -4.43793996    -1.65820415    -4.58396673
H     -5.42138369    -1.33383694    -3.09225954
H     -4.35007005    -2.83252727    -3.19276900
H     -2.25061163    -2.36651127    -4.30683594
H     -1.52925119    -0.74919330    -4.19022302
H     -1.33868494    -1.96116738    -2.84224277
H     -4.14165186     0.60434898    -4.16097574
H     -2.53330432     1.00886973    -3.44917036
H     -4.02815748     1.03425887    -2.43372853
H     -5.11393083    -2.36631028    -1.19980447
H     -5.07834066    -2.52007481     1.14597087
H     -4.24519833    -2.23514260     4.55304263
H     -5.29466234    -1.73217270     3.16429266
H     -4.26678549    -3.22787446     3.03613680
H     -2.61769906     0.03725898     4.53342630
H     -4.22494992     0.30562525     3.84195076
H     -2.78567054     0.79930912     2.89823324
H     -1.34018841    -1.59873573     4.18449790
H     -1.12045886    -2.13719378     2.47871756
H     -2.04592714    -3.12226321     3.61913894
H      2.67178957     2.78545222     1.09807256
H      2.23902416     2.74326378     2.81536856
H      2.13060978     4.27248902     1.97425305
H      0.10422452     1.91333084     3.26540933
H     -1.29801720     2.84745602     2.50895948
H      0.08754779     3.76721729     3.31857455
H     -1.03918564     3.98060516     0.54511694
H      0.14378187     4.99027096     1.45850275
H      0.70364026     5.14624431    -0.90023718
H      1.93101557     4.24926288    -0.22995776
H      2.52207790     2.96446764    -1.88744694
H      1.47943658     4.17678961    -2.70509117
H      1.27274721     2.47395804    -3.11576708
H     -0.83254758     2.85073419    -2.89691380
H     -1.62550800     2.97437377    -1.27969712
H     -0.85332282     4.45493280    -2.07988905
