97
ZOPJOG | source=rxembed | metal=Ti#0 | donors=[1, 61, 62, 2, 49, 3, 63, 4, 64, 5] (OOOONNCCCC) | vertices=4 | polytope=square_planar | M-donor MAE vs crystal = 0.007 A
Ti    -0.07168822    -0.92841463    -0.25003645
O     -0.63014041     0.05631574     1.14434021
O     -1.67998604    -0.55874252    -1.02855340
N     -0.81352591    -2.86156174     0.71820058
C     -1.76006070     0.59002654     0.94195035
C     -2.37675036     0.21716109    -0.30642313
C     -3.70405010     0.76089574    -0.68597043
C     -4.27792998     1.61271098     0.20003147
H     -5.23659727     2.06936392     0.00820586
C     -3.63168703     2.00592287     1.48214543
H     -4.18732449     2.70726623     2.08580835
C     -2.41849684     1.54105948     1.86717069
C     -4.34544395     0.40693222    -2.04800431
C     -3.45308859     0.94617196    -3.18610196
H     -3.90612234     0.72963303    -4.17810505
H     -3.32921161     2.04685680    -3.09116086
H     -2.44543197     0.48460377    -3.17410672
C     -5.75884757     1.01360524    -2.23565991
H     -5.72174913     2.12431801    -2.22294975
H     -6.44974356     0.65800373    -1.44078877
H     -6.19163409     0.71408626    -3.21516778
C     -4.48584197    -1.12587082    -2.18133046
H     -3.50259542    -1.62884165    -2.25314202
H     -5.04600172    -1.39370790    -3.10361530
H     -5.03309126    -1.54176344    -1.30761449
C     -1.71151916     1.99400522     3.16611440
C     -2.56725480     2.96143324     4.02225264
H     -2.02840080     3.24989597     4.95102473
H     -3.52244610     2.48037843     4.32553076
H     -2.78617824     3.89849651     3.46606384
C     -0.40047579     2.72671375     2.80534855
H      0.31641915     2.05969207     2.28340027
H      0.10518234     3.10299143     3.72153014
H     -0.61213740     3.59340546     2.14194335
C     -1.39002590     0.76400991     4.04452638
H     -2.30762164     0.15881504     4.21327077
H     -0.99241965     1.07750437     5.03474214
H     -0.61852309     0.11521378     3.58406072
C     -0.22529718    -3.93899861    -0.11221617
H      0.84650533    -4.08772417     0.14042991
H     -0.72131633    -4.91593779     0.09150531
C     -0.35278039    -3.02841834     2.11130692
H     -0.68915068    -4.00019236     2.53816005
H     -0.74096660    -2.20422332     2.74602450
H      0.75338446    -2.99679383     2.17248403
C     -2.28785407    -2.97020057     0.72615393
H     -2.72867137    -2.18225666     1.37419734
H     -2.62621797    -3.96237725     1.10130018
H     -2.70602166    -2.82027446    -0.28618207
N      0.35159439    -2.36694879    -1.97480385
C     -0.32337219    -3.63652633    -1.61701792
H     -1.39784386    -3.60756425    -1.89788704
H      0.10825896    -4.49321829    -2.18410767
C      1.80834660    -2.58282173    -2.10311153
H      2.31448023    -1.63740962    -2.39460256
H      2.04378199    -3.35485965    -2.87005341
H      2.25166843    -2.90017623    -1.13883599
C     -0.15097831    -1.90555760    -3.28360399
H      0.05978049    -2.64913154    -4.08519942
H      0.31918791    -0.93786543    -3.55745535
H     -1.24657938    -1.73660180    -3.24904919
O      0.73045639     0.41893800    -1.12534006
O      1.50617826    -1.15854903     0.63695886
C      1.90205700     0.64649565    -0.69602878
C      2.35097873    -0.26928868     0.31913295
C      3.69884859    -0.12995727     0.92352447
C      4.45350339     0.90282117     0.47425879
H      5.44413797     1.09068068     0.85835707
C      3.97802152     1.86263000    -0.55866126
H      4.66959926     2.65113805    -0.81244159
C      2.75611307     1.77434832    -1.13811285
C      4.17292287    -1.10037043     2.02986062
C      3.25689019    -0.95291659     3.26377138
H      3.59250163    -1.62173058     4.08599306
H      2.20520261    -1.21383564     3.03207845
H      3.27639521     0.09462173     3.63532650
C      5.62737216    -0.83585062     2.49511662
H      6.33857746    -0.93538748     1.64616173
H      5.72543400     0.17719357     2.94164011
H      5.93193865    -1.56721850     3.27579598
C      4.11755368    -2.55464865     1.51014916
H      4.53949576    -3.25873123     2.25967477
H      3.08130263    -2.88751100     1.30881181
H      4.70528776    -2.65174951     0.57133097
C      2.23431316     2.80071212    -2.17026564
C      3.27287293     3.89526946    -2.52331757
H      2.86056330     4.60383337    -3.27442932
H      4.19041737     3.44425498    -2.95882994
H      3.54511734     4.48994020    -1.62461830
C      0.98615270     3.51107720    -1.60133304
H      0.62182900     4.29054315    -2.30541296
H      1.22771185     4.00030932    -0.63316494
H      0.14737452     2.80503182    -1.43266500
C      1.86306856     2.07719059    -3.48322256
H      1.58633069     2.80822994    -4.27376374
H      0.99339635     1.40431967    -3.35257730
H      2.72258627     1.47565879    -3.85012533
