97
ZOPJOG | source=crystal | metal=Ti#0 | rxembed donors=[1, 61, 62, 2, 49, 3, 63, 4, 64, 5] (OOOONNCCCC) | vertices=4 sites=[[1, 2, 4, 5], [3], [49], [61, 62, 63, 64]] | polytope=square_planar | MAE=0.000 (reference)
Ti     3.78249580    11.34882554     6.75041086
O      4.11729357     9.98747157     7.85009595
O      5.57166843    11.63507405     6.70087674
N      3.94893995     9.90983563     4.98497109
C      5.28683258    10.19017089     8.47801423
C      6.11612568    11.13577616     7.82207834
C      7.36896868    11.47075479     8.35017909
C      7.75515897    10.80246340     9.50847117
H      8.71510809    11.01260789     9.95157961
C      6.94461742     9.87520538    10.13839407
H      7.31452013     9.40940205    11.03725722
C      5.67905716     9.55282861     9.65745419
C      8.19523568    12.58098325     7.71709717
C      7.39201789    13.88274955     7.86106345
H      7.33857669    14.16905366     8.90937444
H      6.37608997    13.73727768     7.49998482
H      7.86039984    14.69183574     7.30209608
C      8.43244202    12.26672990     6.23389289
H      9.01521150    11.35278632     6.13391431
H      8.97454329    13.07982304     5.75297534
H      7.48091852    12.12772953     5.72821644
C      9.55983473    12.77338780     8.38358095
H      9.45072837    13.05424842     9.42792258
H     10.09988992    13.57065538     7.87527311
H     10.15577117    11.86566819     8.32117337
C      4.72294685     8.59735468    10.35619289
C      5.31857843     7.99373739    11.63081396
H      6.21321865     7.41630200    11.40862325
H      4.59029435     7.32747286    12.08984509
H      5.56707683     8.76965931    12.35068290
C      3.44797572     9.36871004    10.72859524
H      3.68151377    10.14771343    11.45111402
H      2.71332465     8.69677582    11.16926336
H      3.00877346     9.83764476     9.84826044
C      4.36617674     7.45248513     9.39789202
H      5.26594633     6.92156280     9.09058720
H      3.87228383     7.85237911     8.51601364
H      3.69373992     6.74736731     9.88325361
C      3.51935766    10.63116052     3.78744256
H      2.42550736    10.64895310     3.77464348
H      3.86176176    10.11615760     2.87207392
C      5.32771343     9.44213141     4.84501928
H      5.41938647     8.74299688     3.99812149
H      5.62778551     8.93246480     5.76182455
H      6.00841258    10.27826810     4.69344064
C      3.09709494     8.73881494     5.18652056
H      3.16374703     8.04998047     4.33017912
H      2.06278480     9.05201767     5.31954824
H      3.41576434     8.21770750     6.08913706
N      3.61700749    12.78758301     4.98485277
C      4.04631361    12.06613125     3.78729928
H      5.14015823    12.04834739     3.77420071
H      3.70368445    12.58100998     2.87194817
C      2.23834776    13.25564435     4.84493102
H      2.14680528    13.95480464     3.99803618
H      1.93843340    13.76538177     5.76174970
H      1.55744789    12.41966024     4.69337980
C      4.46916393    13.95838631     5.18637349
H      4.40264061    14.64729825     4.33008147
H      5.50340347    13.64491171     5.31931607
H      4.15071327    14.47951360     6.08905628
O      3.44710631    12.71060491     7.84943910
O      1.99341364    11.06220637     6.70029156
C      2.27790131    12.50691519     8.47767976
C      1.44903638    11.56088567     7.82181187
C      0.19664467    11.22486221     8.35030657
C     -0.18968610    11.89273768     9.50878016
H     -1.14917784    11.68153725     9.95237049
C      0.62035089    12.82055466    10.13855311
H      0.25055339    13.28568709    11.03780578
C      1.88557965    13.14380789     9.65732310
C     -0.62889485    10.11396024     7.71751966
C      0.17561892     8.81295059     7.86116950
H      0.22933999     8.52662573     8.90946048
H      1.19142182     8.95931647     7.50005639
H     -0.29215345     8.00354031     7.30216505
C     -0.86653307    10.42816706     6.23437340
H     -1.45033573    11.34147220     6.13465548
H     -1.40801361     9.61456403     5.75365861
H      0.08465876    10.56821137     5.72829899
C     -1.99307797     9.92059067     8.38462157
H     -1.88348220     9.63969785     9.42891483
H     -2.53253424     9.12290106     7.87638014
H     -2.58985832    10.82777339     8.32241073
C      2.84125032    14.09983826    10.35594374
C      2.24582574    14.70288575    11.63092396
H      1.35064481    15.27965382    11.40923199
H      2.97371769    15.36957807    12.08999171
H      1.99815089    13.92656460    12.35062439
C      4.11696297    13.32948680    10.72787193
H      3.88436504    12.55013500    11.45031951
H      4.85131117    14.00188256    11.16835815
H      4.55617821    12.86106105     9.84727848
C      3.19678354    15.24537865     9.39796691
H      2.29645037    15.77565234     9.09114754
H      3.69057590    14.84590039     8.51584740
H      3.86897410    15.95087825     9.88318695
