17
playground/falsify/bisallyl_ni_UNOPT.xyz
Ni    0    0.766666    1.93
C    -1.21142    0.484219    0.397072
C    -4.49e-12    -0.213453    0.237079
C    1.21142    0.484219    0.397072
H    -2.1421    -0.0593759    0.392575
H    -1.294    1.49307    0.0113998
H    2.1421    -0.0593759    0.392575
H    1.294    1.49307    0.0113998
H    -6.76e-12    -1.29251    0.306757
C    -1.21142    1.04911    3.46293
C    4.49e-12    1.74679    3.62292
C    1.21142    1.04911    3.46293
H    -2.1421    1.59271    3.46742
H    -1.294    0.0402629    3.8486
H    2.1421    1.59271    3.46742
H    1.294    0.0402629    3.8486
H    6.76e-12    2.82584    3.55324
