21
ferrocene D5d | eta5+eta5 | MUST KEEP all 10 C
Fe     0.000000     0.000000     0.000000
C      1.215900     0.000000     1.662800
C      0.375734     1.156390     1.662800
C     -0.983684     0.714688     1.662800
C     -0.983684    -0.714688     1.662800
C      0.375734    -1.156390     1.662800
C      0.983684     0.714688    -1.662800
C     -0.375734     1.156390    -1.662800
C     -1.215900     0.000000    -1.662800
C     -0.375734    -1.156390    -1.662800
C      0.983684    -0.714688    -1.662800
H      2.295900     0.000000     1.672800
H      0.709472     2.183531     1.672800
H     -1.857422     1.349496     1.672800
H     -1.857422    -1.349496     1.672800
H      0.709472    -2.183531     1.672800
H      1.857422     1.349496    -1.672800
H     -0.709472     2.183531    -1.672800
H     -2.295900     0.000000    -1.672800
H     -0.709472    -2.183531    -1.672800
H      1.857422    -1.349496    -1.672800
