103
cpa TS geometry (graphrc frame 0)
C 6.792736 -3.079768 -1.146603
C 6.866522 -1.682824 -1.037953
C 5.794410 -0.963795 -0.586143
C 4.593502 -1.607119 -0.215976
C 4.504884 -3.016984 -0.368878
C 5.634129 -3.729779 -0.825847
C 3.457736 -0.896184 0.256736
C 2.281277 -1.576424 0.490621
C 2.177837 -2.975002 0.312811
C 3.288252 -3.672188 -0.089568
C 3.457712 0.567738 0.462282
C 4.341922 1.203357 1.375899
C 4.292258 2.616263 1.513384
C 3.346652 3.350680 0.770585
C 2.458872 2.728011 -0.069016
C 2.520875 1.322643 -0.216339
C 5.240333 0.480814 2.191352
C 6.076851 1.126502 3.059583
C 6.057083 2.525811 3.161650
C 5.177531 3.252641 2.409651
O 1.167783 -0.873062 0.888825
O 1.629607 0.710473 -1.064687
P 0.397111 -0.106828 -0.344876
O -0.011369 -1.105344 -1.403165
O -0.610695 0.785331 0.273249
H 7.651935 -3.632956 -1.496856
H 7.778283 -1.175482 -1.318130
H 5.856173 0.112289 -0.515708
H 5.558682 -4.803584 -0.925681
H 3.229610 -4.744991 -0.214810
H 3.314028 4.426357 0.879276
H 5.255022 -0.597238 2.128547
H 6.757689 0.558420 3.676739
H 6.731280 3.019829 3.845915
H 5.137924 4.329619 2.494115
H -1.252985 -1.644114 -1.213143
C 1.461948 3.494789 -0.843431
C 1.575236 3.556445 -2.211268
C 0.682787 4.319001 -2.976871
C -0.325945 5.013567 -2.370617
C -0.499914 4.949619 -0.971794
C -1.554324 5.631259 -0.326001
C -1.727248 5.534675 1.026584
C -0.854556 4.746344 1.793389
C 0.185129 4.085039 1.200600
C 0.399414 4.173977 -0.191308
H -2.227440 6.229063 -0.925146
H -2.538833 6.056582 1.512966
H -1.012009 4.664099 2.859104
H 0.846226 3.468824 1.791434
H -1.005833 5.619162 -2.953685
H 0.809097 4.359022 -4.049141
H 2.374936 3.020048 -2.702231
C 0.882264 -3.629402 0.581443
C 0.369549 -3.598539 1.856064
C -0.850621 -4.216094 2.159502
C -1.559570 -4.856304 1.182409
C -1.084736 -4.885662 -0.145069
C -1.817645 -5.512522 -1.174729
C -1.359880 -5.511123 -2.461530
C -0.147855 -4.877709 -2.775592
C 0.591707 -4.270774 -1.799312
C 0.152710 -4.263281 -0.458571
H 0.921347 -3.097333 2.639496
H -1.219244 -4.184025 3.175396
H -2.496885 -5.344426 1.412013
H -2.755665 -5.990313 -0.925803
H -1.929096 -5.988659 -3.246419
H 0.195777 -4.868938 -3.800275
H 1.514039 -3.769197 -2.051668
C -3.513573 1.203758 -0.247947
C -2.888460 0.260328 -1.046010
C -3.064050 -1.130868 -0.687570
C -4.246485 -1.330429 0.053631
C -5.204434 -0.313045 -0.028712
O -2.229974 -2.071258 -0.979837
C -4.381438 -2.568820 0.881070
H -5.417341 0.120415 -0.995593
H -5.393774 -2.695643 1.253390
H -4.106675 -3.417690 0.255437
H -3.678761 -2.556289 1.714139
O -2.282121 0.532719 -2.196008
C -1.999247 1.909203 -2.419154
C -3.250623 2.748165 -2.179200
H -1.197089 2.211569 -1.738710
H -1.647799 1.968051 -3.450313
C -3.631798 2.621742 -0.705742
H -4.053963 2.374051 -2.818462
H -2.961451 3.233475 -0.093197
H -4.647911 2.985195 -0.529081
H -3.565166 1.056957 0.815433
C -6.224565 -0.052407 0.966553
C -7.459021 0.476808 0.569060
C -5.995536 -0.261223 2.332270
C -8.444733 0.742167 1.498696
H -7.642566 0.657128 -0.480332
C -6.981147 0.016903 3.258852
H -5.031101 -0.617263 2.659995
C -8.210404 0.509467 2.845980
H -9.396748 1.136391 1.176190
H -6.790630 -0.146760 4.309022
H -8.979767 0.721099 3.573112
H -3.052047 3.786796 -2.437415
