70
ts4 TMP
C -2.40139100 -1.41855500 1.04028600
C -1.13179700 -0.83928200 1.26419300
C -0.00084700 -1.57489200 0.86164900
C -0.09321600 -2.85625900 0.33462800
C -1.34596100 -3.44047000 0.17354400
C -2.48074500 -2.71672800 0.51199000
H 0.98247900 -1.12429600 0.97959400
H 0.80599000 -3.39428100 0.04637400
H -1.44092600 -4.44219500 -0.23689000
H -3.46439600 -3.14611100 0.34668900
N -3.61141100 -0.70552700 1.30278400
B -0.93003800 0.59038400 1.92979300
H 1.11025800 4.16146800 0.81893700
H 2.64403500 3.71926400 0.04143700
H 1.32736600 2.53585000 0.15908000
C 3.92574000 1.31770000 0.72506300
H 4.69035400 2.08877000 0.58447900
H 4.42813400 0.34832900 0.78231100
H 3.27242000 1.30738000 -0.14902300
C 4.03147400 1.35140100 3.22909900
H 4.36949300 0.31198600 3.24201900
H 4.91197800 2.00037000 3.21068100
H 3.47636100 1.53820600 4.15289400
C 0.01306500 0.44616100 3.67687400
C 0.18996900 -0.86700800 4.10343100
C -0.27450300 -1.12420800 5.40642500
H -1.84826400 1.26308400 2.28021600
H -0.08788400 1.26200500 1.34482600
C 2.35107900 2.91599400 2.04986300
C 3.13965500 1.56123400 2.00462700
O 1.21147600 2.57327000 2.86324300
O 2.08325300 0.58211100 2.08846600
B 0.99948300 1.21736900 2.68353800
C 3.09006500 4.06265700 2.72438200
H 2.46305500 4.95809900 2.71666700
H 3.32765500 3.82664300 3.76296400
H 4.01871100 4.29286400 2.19192600
C 1.83346500 3.35410200 0.67873200
H 0.63584100 -1.61673700 3.45989000
C -0.79195200 0.00914500 5.98923600
H -0.23844700 -2.09074700 5.89313300
H -1.22214900 0.09320500 6.97950400
S -0.71927300 1.36380500 4.96958300
C -4.21988100 0.08217200 0.20107000
C -4.36727900 -1.01919200 2.52983000
C -5.27126700 0.18374600 2.84334700
C -3.39363900 -1.18216700 3.70377100
C -5.20058200 -2.31983900 2.44369700
C -6.26168800 0.52372700 1.72032800
H -4.60961700 1.03709900 3.03036800
H -5.80790800 -0.00666900 3.78000400
C -5.75265400 0.07544000 0.34425600
H -6.44805200 1.60313000 1.72184600
H -7.23125500 0.04998800 1.91010200
C -3.89415500 -0.51879000 -1.17638700
C -3.70766900 1.53637000 0.20048600
H -6.17336400 0.71547300 -0.43946700
H -6.10556000 -0.93818500 0.12603800
H -4.26274800 -1.54510700 -1.26340200
H -2.81912400 -0.52700800 -1.37405400
H -4.37543200 0.08137800 -1.95553200
H -4.18776700 2.11239100 -0.59922200
H -2.62722700 1.56359400 0.03226200
H -3.90336000 2.03726900 1.15188100
H -5.89510000 -2.31826800 1.60061300
H -5.78453600 -2.45980000 3.36056500
H -4.54403100 -3.18857400 2.33739000
H -2.70401700 -2.01536600 3.54280300
H -3.94934400 -1.37807200 4.62691700
H -2.80636800 -0.27152100 3.83843200

