95
mn-hy TS geometry (graphrc frame 0)
Fe -3.978862 -0.276425 -1.370705
Mn 0.448474 -0.815889 0.517726
P -1.209380 0.711714 0.679553
O 1.092065 -0.902498 3.387366
O -1.183822 -3.233817 0.859553
N 0.309323 -0.787776 -1.586611
N 1.931836 0.544817 0.052770
C -2.284676 0.743341 -0.816744
C -2.044233 -0.044750 -2.025912
C -2.981012 0.412092 -3.027459
H -3.078163 0.015197 -4.045708
C -3.798793 1.449482 -2.460349
H -4.618700 1.973689 -2.969510
C -3.380085 1.652382 -1.101401
H -3.811927 2.376241 -0.398494
C -4.269645 -1.962764 -0.223534
H -3.500061 -2.461514 0.379890
C -4.561453 -2.237509 -1.605843
H -4.061488 -2.986364 -2.234903
C -5.608253 -1.342078 -2.027993
H -6.041726 -1.284737 -3.035489
C -5.965933 -0.515024 -0.903729
H -6.720141 0.283365 -0.904857
C -5.137470 -0.896070 0.210647
H -5.148102 -0.442412 1.210138
C -0.624758 2.478374 0.806848
C 0.011632 2.870438 2.009834
H 0.081523 2.158514 2.848794
C 0.550155 4.159794 2.150284
H 1.031923 4.449864 3.097872
C 0.478467 5.077187 1.084039
H 0.901849 6.088329 1.193244
C -0.134925 4.692565 -0.120462
H -0.195490 5.401989 -0.961505
C -0.683290 3.402508 -0.259185
H -1.174011 3.124548 -1.204833
C -2.419495 0.658509 2.099425
C -2.595477 -0.533711 2.834235
H -2.001164 -1.423292 2.581918
C -3.528869 -0.597273 3.885414
H -3.651900 -1.536452 4.448127
C -4.297223 0.531873 4.219889
H -5.026061 0.482706 5.044556
C -4.122558 1.728591 3.500224
H -4.713254 2.621763 3.759836
C -3.188183 1.792893 2.451724
H -3.049385 2.742819 1.912074
C -1.004457 -1.143400 -2.219245
H -1.337447 -2.040786 -1.660825
C 0.927678 0.432287 -2.150578
H 1.303973 0.276239 -3.184783
H 0.148298 1.224842 -2.211756
C 2.035532 0.922021 -1.253641
C 2.870874 1.037018 0.904087
H 2.785395 0.721639 1.954344
C 3.900921 1.890386 0.522849
H 4.604621 2.233100 1.292019
C 4.030643 2.286932 -0.844150
C 3.049351 1.754715 -1.733645
H 3.059871 1.997617 -2.804342
C -0.842894 -1.557160 -3.692356
H -1.786067 -1.994606 -4.076237
H -0.574604 -0.703763 -4.348110
H -0.054198 -2.331689 -3.778909
C 0.822673 -0.853298 2.232900
C -0.574869 -2.221307 0.717203
H 0.969991 -1.584983 -1.802922
H 1.636292 -1.933463 0.271476
N 5.030381 3.118289 -1.272545
C 5.122865 3.485409 -2.681852
H 4.212996 4.022885 -3.029881
H 5.264432 2.594361 -3.332870
H 5.989940 4.154120 -2.827115
C 6.008217 3.637141 -0.321084
H 6.588977 2.820933 0.162889
H 5.525301 4.237157 0.481486
H 6.720328 4.292277 -0.853756
C 2.538018 -3.003860 -0.764937
C 3.842036 -2.645693 -0.108317
C 2.055664 -4.280959 -0.036640
C 4.015530 -3.413581 1.065671
C 4.835249 -1.761419 -0.560915
C 2.795399 -4.281664 1.318913
C 5.200835 -3.293276 1.809345
C 6.022243 -1.645879 0.184450
H 4.678671 -1.184496 -1.486557
C 6.201125 -2.405779 1.361258
H 5.355852 -3.888028 2.724736
H 6.821814 -0.966337 -0.151933
H 7.138601 -2.309398 1.932665
O 2.219506 -2.689931 -1.944167
H 3.058504 -5.296042 1.683898
H 2.162981 -3.810841 2.105705
H 0.954722 -4.349304 0.036189
H 2.404167 -5.131370 -0.667635
