52
spiro-ts1 TS geometry (graphrc frame 0)
O -0.611590 -1.821219 -0.321327
C -0.954194 -0.789406 0.216189
N -2.224708 -0.308809 0.402850
C -3.458387 -0.884339 0.020260
C -3.505958 -2.128116 -0.626270
C -4.740657 -2.660567 -0.994305
C -5.926468 -1.977837 -0.727781
C -5.868854 -0.742082 -0.083286
C -4.646315 -0.190942 0.291158
N -2.236787 0.875492 1.140544
C -1.035985 1.234428 1.394683
C -0.693909 2.404737 2.242868
C -0.035693 0.296116 0.774677
O 1.000331 -0.149272 1.633158
C 2.018690 0.275471 0.736138
N 2.352623 -1.513308 -0.075053
H 1.468319 -1.883937 -0.437543
C 3.352371 -1.360381 -1.128877
C 3.903747 -2.708457 -1.573013
O 4.407532 -3.431155 -0.474696
C 3.412018 -3.664588 0.494958
C 2.842372 -2.353735 1.016768
O 3.102118 0.654526 1.103485
C 0.988411 0.833340 -0.278041
C 0.965942 2.304920 -0.596032
C 1.992396 3.177630 -0.222849
C 1.896995 4.538805 -0.523885
C 0.780756 5.038483 -1.192266
C -0.244468 4.168745 -1.572681
C -0.148009 2.810659 -1.281483
H -2.588814 -2.671221 -0.836509
H -4.767831 -3.629169 -1.496609
H -6.887116 -2.404775 -1.019019
H -6.786797 -0.193010 0.133926
H -4.602144 0.773110 0.793274
H 0.000671 2.087226 3.034695
H -1.603631 2.819770 2.693064
H -0.190134 3.183916 1.651714
H 4.164111 -0.743239 -0.711516
H 2.906494 -0.823361 -1.979042
H 4.729274 -2.568868 -2.284048
H 3.106270 -3.289260 -2.077349
H 3.874745 -4.233140 1.312971
H 2.598150 -4.279670 0.062704
H 3.629174 -1.781422 1.534561
H 2.018049 -2.530511 1.720695
H 0.939240 0.248795 -1.207148
H 2.860233 2.788110 0.308797
H 2.703250 5.212389 -0.227757
H 0.708335 6.103367 -1.420112
H -1.120787 4.550522 -2.099488
H -0.952900 2.130425 -1.575179
