83
thia-ma sulfa-Michael TS (frame 0)
C -6.259958 1.915444 -0.150895
C -6.694052 0.747207 0.489989
C -5.781696 -0.132062 1.064980
C -4.425367 0.175181 0.962355
C -3.995925 1.327500 0.301765
H -7.760193 0.524287 0.543591
H -6.113839 -1.040997 1.568994
C -1.966709 0.412469 0.899772
C 0.209002 1.406217 0.400107
C -0.515613 2.041055 -0.797441
C -1.897744 2.514267 -0.391653
H -2.482579 2.794087 -1.277621
S -3.070497 -0.756480 1.574161
N -2.599442 1.417523 0.276649
N -0.630780 0.338110 0.978540
C 0.315167 3.131977 -1.511390
C 0.108548 4.545724 -0.961797
H -0.897355 4.921055 -1.208127
H 0.240130 4.605902 0.127793
H 0.833194 5.230749 -1.425252
H -0.658629 1.212220 -1.512052
H 1.081225 0.901532 -0.026003
C 0.683971 2.377974 1.459038
C 2.006643 2.831314 1.415814
C -0.176793 2.875070 2.443409
C 2.454274 3.793715 2.319269
H 2.690086 2.423882 0.665386
C 0.271184 3.836604 3.349268
H -1.205487 2.512325 2.516432
C 1.584266 4.303791 3.283586
H 3.487850 4.140666 2.274429
H -0.408771 4.219284 4.112202
H 1.933485 5.055694 3.993160
C 1.403948 -0.856679 1.672245
H 2.040631 -0.076448 1.266219
C 1.990754 -2.037930 2.132823
C 3.416755 -1.937475 2.605087
F 4.198728 -1.282290 1.744380
F 3.469957 -1.267056 3.764736
F 3.976600 -3.128184 2.831970
O -0.777320 -1.666884 2.057337
C -0.014651 -0.811661 1.619472
H -1.861312 3.376375 0.291565
C -4.907781 2.226003 -0.253125
H -4.579527 3.136407 -0.753888
H -6.994104 2.594722 -0.585819
H 1.383007 -2.691506 2.762137
S 2.307693 -3.596230 0.518241
C 1.209625 -2.789346 -0.602726
N -0.078098 -3.286796 -0.517411
H -0.159465 -4.073435 0.119142
C -1.286154 -2.778861 -0.960085
C -1.438251 -1.591835 -1.706007
C -2.443195 -3.503698 -0.593065
C -2.710110 -1.121894 -2.013109
H -0.556919 -1.049027 -2.031300
C -3.706722 -3.047140 -0.916528
H -2.330823 -4.430550 -0.027400
C -3.829699 -1.842569 -1.610223
H -2.838213 -0.193544 -2.570594
H -4.597794 -3.598850 -0.619957
N -5.162083 -1.311993 -1.892294
O -5.240297 -0.225726 -2.422683
O -6.118954 -1.985178 -1.577568
N 1.438368 -1.779225 -1.365739
C 2.646658 -1.148208 -1.610850
C 2.554349 0.191891 -2.052471
C 3.929732 -1.733629 -1.539260
C 3.678887 0.945979 -2.344084
H 1.560269 0.623403 -2.180155
C 5.063242 -0.990030 -1.841013
H 4.037458 -2.774650 -1.248041
C 4.929288 0.342426 -2.222386
H 3.600119 1.981081 -2.675214
H 6.054753 -1.437248 -1.783496
N 6.128911 1.123463 -2.529444
O 5.982159 2.280302 -2.858002
O 7.203561 0.573766 -2.438562
H 1.375875 2.863099 -1.368574
C 0.027465 3.107229 -3.012564
H -1.039425 3.298199 -3.211459
H 0.606548 3.884003 -3.532976
H 0.285765 2.134485 -3.457445
